---------
   ODB: C:/Scratch/B737.odb
   Step: Bending
   Frame: Increment      1: Step Time =    1.000

Loc 1 : Integration point values at shell < ALUMINIUM > < 5 section points > from source 1 : SNEG, (fraction = -1.0)
Loc 2 : Integration point values at shell < ALUMINIUM > < 5 section points > from source 1 : SPOS, (fraction = 1.0)

Output sorted by column "Element Label".

Field Output reported at integration points for region: B737-1.Region_1

   Element Label             Int         S.Mises         S.Mises           S.S12           S.S12
                              Pt          @Loc 1          @Loc 2          @Loc 1          @Loc 2
-------------------------------------------------------------------------------------------------
               1               1     7.73373E-15     6.84854E-15     2.93823E-15     2.40107E-15
               2               1     7.57620E-15     8.59958E-15     3.31247E-15     3.55234E-15
               3               1     6.06272E-15     5.62818E-15    -1.39569E-15    -892.584E-18
               4               1     3.85832E-15     3.61561E-15     1.34280E-15     1.70822E-15
               5               1     7.45040E-15     5.79759E-15     1.60518E-15     1.44585E-15
               6               1     4.18118E-15     4.49276E-15     1.73651E-15     1.31452E-15
               7               1     7.71910E-15     8.45707E-15     572.831E-18     952.682E-18
               8               1     2.29794E-15     1.94883E-15     552.049E-18     973.464E-18
               9               1     8.46825E-15     7.93114E-15     907.077E-18     618.436E-18
              10               1     7.06179E-15     6.98394E-15     3.88421E-15     3.74335E-15
              11               1     573.008E-18     573.008E-18     144.320E-18    -144.320E-18
              12               1     6.34552E-15     5.90234E-15    -732.738E-18    -792.775E-18
              13               1     4.78441E-15     5.20166E-15     2.21438E-15     2.36216E-15
              14               1     5.10366E-15     4.67166E-15    -1.47818E-15    -1.57285E-15
              15               1     8.68573E-15     7.82858E-15     56.5736E-18    -56.5736E-18
              16               1     5.29111E-15     5.30308E-15     3.04756E-15     3.05449E-15
              17               1     2.73317E-15     1.29331E-15    -8.08194E-18     8.08194E-18
              18               1     2.63508E-15     2.51363E-15    -950.950E-18    -574.563E-18
              19               1     23.6189E-03     26.8933E-03     13.4234E-03     13.3451E-03
              20               1     24.4624E-03     23.1324E-03     13.6540E-03     13.3360E-03
              21               1     23.9700E-03     23.7040E-03     13.4635E-03     13.5073E-03
              22               1     27.0558E-03     26.3467E-03     13.5815E-03     13.4077E-03
              23               1     30.4271E-03     30.3798E-03     13.5288E-03     13.4070E-03
              24               1     33.7698E-03     38.9155E-03     13.2229E-03     13.5210E-03
              25               1     48.9428E-03     37.2145E-03     13.6165E-03     13.4008E-03
              26               1     38.8684E-03     50.9662E-03     13.2572E-03     12.9024E-03
              27               1     31.7711E-03     28.9315E-03     13.7622E-03     13.8819E-03
              28               1     36.4932E-03     35.8258E-03     13.9412E-03     13.4252E-03
              29               1     41.5783E-03     42.0840E-03     13.9835E-03     13.6176E-03
              30               1     48.5929E-03     47.4277E-03     13.9128E-03     13.4314E-03
              31               1     54.1551E-03     55.7254E-03     13.8255E-03     13.6214E-03
              32               1     62.3504E-03     61.4069E-03     13.7120E-03     13.6450E-03
              33               1     67.9215E-03     66.8926E-03     13.5970E-03     13.7773E-03
              34               1     69.4058E-03     81.3635E-03     13.0801E-03     13.9620E-03
              35               1     94.9413E-03     72.3733E-03     13.8751E-03     13.8791E-03
              36               1     71.6627E-03     91.2421E-03     13.3694E-03     12.6746E-03
              37               1     59.2083E-03     60.5792E-03     13.7271E-03     14.1659E-03
              38               1     76.3050E-03     66.7157E-03     14.1626E-03     13.4081E-03
              39               1     74.6975E-03     80.2609E-03     14.1813E-03     13.2380E-03
              40               1     85.3017E-03     83.5602E-03     14.2777E-03     13.4749E-03
              41               1     92.3369E-03     91.6120E-03     13.8964E-03     13.3385E-03
              42               1     97.6254E-03     100.600E-03     13.8684E-03     13.7176E-03
              43               1     107.290E-03     105.699E-03     13.7123E-03     13.9909E-03
              44               1     112.310E-03     110.652E-03     13.4682E-03     14.0579E-03
              45               1     111.105E-03     129.051E-03     12.9532E-03     14.4505E-03
              46               1     145.765E-03     112.489E-03     13.9584E-03     14.2064E-03
              47               1     108.983E-03     135.693E-03     13.4984E-03     12.4061E-03
              48               1     94.8749E-03     102.810E-03     13.7806E-03     14.5778E-03
              49               1     125.245E-03     105.375E-03     14.2103E-03     13.2212E-03
              50               1     115.274E-03     126.552E-03     14.4688E-03     12.9543E-03
              51               1     128.912E-03     126.404E-03     14.4671E-03     13.3385E-03
              52               1     136.646E-03     135.417E-03     13.9395E-03     13.1858E-03
              53               1     140.978E-03     145.464E-03     13.8684E-03     13.7176E-03
              54               1     151.837E-03     149.728E-03     13.6692E-03     14.1436E-03
              55               1     156.377E-03     153.956E-03     13.2788E-03     14.1944E-03
              56               1     152.378E-03     176.091E-03     12.6658E-03     14.7342E-03
              57               1     195.785E-03     152.139E-03     13.9106E-03     14.3932E-03
              58               1     145.916E-03     179.482E-03     13.4448E-03     11.9942E-03
              59               1     134.746E-03     149.896E-03     14.2542E-03     15.5587E-03
              60               1     178.811E-03     148.265E-03     13.8414E-03     13.0120E-03
              61               1     158.602E-03     179.544E-03     14.6665E-03     13.4392E-03
              62               1     178.543E-03     173.648E-03     13.8451E-03     13.4115E-03
              63               1     184.416E-03     180.749E-03     13.2652E-03     13.4032E-03
              64               1     177.140E-03     206.673E-03     12.0199E-03     13.5891E-03
              65               1     227.465E-03     177.004E-03     13.4290E-03     13.7248E-03
              66               1     169.229E-03     207.572E-03     12.4264E-03     10.6887E-03
              67               1     9.28407E-03     16.0946E-03     4.96739E-03     4.94642E-03
              68               1     9.98241E-03     9.04853E-03     5.04164E-03     5.03670E-03
              69               1     11.2271E-03     10.2577E-03     5.04553E-03     4.95084E-03
              70               1     18.7452E-03     17.4885E-03     5.00717E-03     5.02399E-03
              71               1     24.1224E-03     24.4463E-03     5.05695E-03     4.93974E-03
              72               1     30.5950E-03     37.2390E-03     5.09587E-03     5.27012E-03
              73               1     48.8903E-03     33.9730E-03     5.30810E-03     5.32674E-03
              74               1     36.6743E-03     52.0870E-03     4.96059E-03     4.69303E-03
              75               1     28.3726E-03     24.1909E-03     5.32913E-03     5.63376E-03
              76               1     36.2345E-03     34.9273E-03     5.03762E-03     5.14115E-03
              77               1     42.3915E-03     44.2961E-03     5.31882E-03     5.05266E-03
              78               1     52.2579E-03     50.8052E-03     5.21754E-03     5.45864E-03
              79               1     58.6425E-03     60.9243E-03     5.19792E-03     5.31789E-03
              80               1     69.4997E-03     67.4172E-03     5.63301E-03     5.65542E-03
              81               1     75.1750E-03     73.9264E-03     5.76419E-03     5.31375E-03
              82               1     78.4706E-03     91.9830E-03     5.71070E-03     6.04031E-03
              83               1     106.029E-03     79.1003E-03     6.20441E-03     6.06808E-03
              84               1     79.2497E-03     102.241E-03     5.40048E-03     4.73097E-03
              85               1     67.2634E-03     69.6731E-03     5.72000E-03     6.37495E-03
              86               1     88.6086E-03     76.3882E-03     4.46908E-03     4.83544E-03
              87               1     86.4360E-03     93.9222E-03     5.59318E-03     5.12950E-03
              88               1     98.3506E-03     97.2755E-03     4.79125E-03     5.50449E-03
              89               1     107.804E-03     105.624E-03     5.44880E-03     5.63358E-03
              90               1     112.297E-03     116.318E-03     5.50867E-03     5.58778E-03
              91               1     125.375E-03     121.478E-03     6.02185E-03     5.86364E-03
              92               1     129.490E-03     127.523E-03     6.43764E-03     5.48322E-03
              93               1     130.046E-03     150.199E-03     5.98537E-03     6.52433E-03
              94               1     167.152E-03     127.708E-03     7.04611E-03     6.70851E-03
              95               1     124.951E-03     156.006E-03     5.52346E-03     4.43286E-03
              96               1     111.699E-03     121.910E-03     5.76600E-03     6.82948E-03
              97               1     148.089E-03     123.689E-03     3.86595E-03     4.39707E-03
              98               1     136.657E-03     150.666E-03     5.50140E-03     4.80305E-03
              99               1     151.318E-03     149.529E-03     4.40593E-03     5.50947E-03
             100               1     162.027E-03     158.412E-03     5.31469E-03     5.57973E-03
             101               1     164.543E-03     170.448E-03     5.50867E-03     5.58778E-03
             102               1     179.632E-03     174.300E-03     6.15597E-03     5.91749E-03
             103               1     182.519E-03     179.837E-03     6.82296E-03     5.47825E-03
             104               1     180.375E-03     207.049E-03     6.07716E-03     6.85078E-03
             105               1     226.764E-03     175.146E-03     7.64924E-03     7.14688E-03
             106               1     169.574E-03     208.483E-03     5.47746E-03     3.97832E-03
             107               1     158.818E-03     177.314E-03     5.00140E-03     6.21336E-03
             108               1     211.742E-03     173.740E-03     3.70932E-03     3.58646E-03
             109               1     188.162E-03     214.277E-03     4.79382E-03     3.35447E-03
             110               1     212.029E-03     205.276E-03     4.75827E-03     5.44525E-03
             111               1     217.926E-03     212.950E-03     5.30586E-03     4.51849E-03
             112               1     210.511E-03     244.973E-03     5.34757E-03     6.86650E-03
             113               1     264.634E-03     204.892E-03     6.64042E-03     6.77697E-03
             114               1     197.662E-03     241.732E-03     4.92657E-03     3.42608E-03
             115               1     6.81999E-03     13.4157E-03    -3.76937E-03    -3.65008E-03
             116               1     7.76318E-03     7.85445E-03    -4.07204E-03    -3.99133E-03
             117               1     11.6674E-03     10.3618E-03    -4.02496E-03    -3.76206E-03
             118               1     19.7743E-03     18.2308E-03    -4.05603E-03    -3.63285E-03
             119               1     25.9341E-03     25.5199E-03    -3.90625E-03    -3.61783E-03
             120               1     31.9424E-03     38.6795E-03    -3.76330E-03    -3.84597E-03
             121               1     52.6226E-03     36.2005E-03    -3.24703E-03    -3.78474E-03
             122               1     38.3535E-03     55.1388E-03    -3.32239E-03    -3.71742E-03
             123               1     33.4841E-03     29.9130E-03    -3.69498E-03    -2.98504E-03
             124               1     44.0228E-03     41.2609E-03    -4.37442E-03    -3.49357E-03
             125               1     48.6011E-03     50.8783E-03    -3.83968E-03    -3.06001E-03
             126               1     58.2774E-03     56.5583E-03    -3.89952E-03    -3.01732E-03
             127               1     65.0298E-03     66.3396E-03    -3.44657E-03    -2.94222E-03
             128               1     75.2469E-03     73.2702E-03    -3.39095E-03    -3.31880E-03
             129               1     82.3726E-03     80.0119E-03    -3.02214E-03    -3.24825E-03
             130               1     85.1330E-03     99.3934E-03    -2.83582E-03    -3.64174E-03
             131               1     117.654E-03     87.8462E-03    -1.71109E-03    -3.22181E-03
             132               1     86.3199E-03     112.313E-03    -2.30100E-03    -3.42488E-03
             133               1     78.3988E-03     83.6316E-03    -4.14060E-03    -2.55493E-03
             134               1     104.867E-03     89.0697E-03    -4.60413E-03    -3.02662E-03
             135               1     98.2375E-03     107.769E-03    -4.33583E-03    -2.63218E-03
             136               1     110.801E-03     107.914E-03    -3.53725E-03    -2.14975E-03
             137               1     118.524E-03     116.803E-03    -3.69419E-03    -2.76229E-03
             138               1     124.087E-03     127.091E-03    -3.03083E-03    -2.70842E-03
             139               1     136.231E-03     132.870E-03    -2.88702E-03    -3.23565E-03
             140               1     143.066E-03     139.415E-03    -2.54123E-03    -3.40249E-03
             141               1     142.717E-03     164.621E-03    -2.00529E-03    -3.69091E-03
             142               1     187.696E-03     143.526E-03    -578.138E-06    -3.04844E-03
             143               1     138.086E-03     173.960E-03    -1.42231E-03    -3.39709E-03
             144               1     128.914E-03     143.773E-03    -4.77680E-03    -2.35783E-03
             145               1     173.227E-03     143.378E-03    -5.54638E-03    -3.02151E-03
             146               1     154.491E-03     171.422E-03    -4.88127E-03    -2.38439E-03
             147               1     170.115E-03     165.720E-03    -3.77036E-03    -1.85655E-03
             148               1     178.040E-03     175.148E-03    -3.88311E-03    -2.65150E-03
             149               1     182.082E-03     186.513E-03    -3.03084E-03    -2.70842E-03
             150               1     195.756E-03     191.221E-03    -2.69811E-03    -3.34643E-03
             151               1     202.396E-03     197.234E-03    -2.30812E-03    -3.69569E-03
             152               1     199.001E-03     228.298E-03    -1.45984E-03    -3.93870E-03
             153               1     256.092E-03     197.869E-03     364.116E-06    -3.05355E-03
             154               1     188.649E-03     234.157E-03    -786.112E-06    -3.59420E-03
             155               1     180.404E-03     204.090E-03    -6.00427E-03    -3.31333E-03
             156               1     243.561E-03     198.825E-03    -8.19708E-03    -5.02427E-03
             157               1     211.883E-03     238.760E-03    -5.33325E-03    -3.34251E-03
             158               1     235.939E-03     225.952E-03    -4.80495E-03    -3.70795E-03
             159               1     242.414E-03     233.586E-03    -3.15732E-03    -3.54273E-03
             160               1     233.710E-03     268.854E-03    -2.45501E-03    -4.26552E-03
             161               1     298.529E-03     230.798E-03     878.012E-06    -2.75179E-03
             162               1     219.579E-03     270.400E-03    -1.08750E-03    -4.05417E-03
             163               1     22.3161E-03     23.5337E-03    -12.8658E-03    -12.4928E-03
             164               1     22.5491E-03     22.2282E-03    -12.9974E-03    -12.3901E-03
             165               1     24.3664E-03     23.3812E-03    -12.7924E-03    -12.2801E-03
             166               1     29.5375E-03     27.7682E-03    -12.5714E-03    -12.3148E-03
             167               1     33.5302E-03     33.9553E-03    -12.7213E-03    -12.7034E-03
             168               1     39.1945E-03     44.9935E-03    -12.9883E-03    -12.4147E-03
             169               1     57.6368E-03     41.6381E-03    -12.8131E-03    -13.1554E-03
             170               1     45.1818E-03     62.2936E-03    -12.7324E-03    -13.6868E-03
             171               1     43.4337E-03     42.3557E-03    -12.0255E-03    -10.4324E-03
             172               1     55.1039E-03     48.8496E-03    -12.5021E-03    -10.9581E-03
             173               1     55.6397E-03     59.4004E-03    -11.6800E-03    -11.1916E-03
             174               1     64.4183E-03     62.5023E-03    -11.6706E-03    -11.2359E-03
             175               1     70.4887E-03     73.4520E-03    -12.3619E-03    -11.9800E-03
             176               1     81.1001E-03     79.2243E-03    -12.0045E-03    -11.7907E-03
             177               1     86.9629E-03     86.2670E-03    -12.6403E-03    -12.8433E-03
             178               1     91.0691E-03     106.555E-03    -13.0866E-03    -12.3036E-03
             179               1     124.906E-03     91.6585E-03    -12.2396E-03    -13.7421E-03
             180               1     93.9913E-03     124.615E-03    -12.3055E-03    -14.8268E-03
             181               1     89.5856E-03     100.495E-03    -11.1352E-03    -8.21427E-03
             182               1     119.367E-03     97.5585E-03    -12.4537E-03    -9.45603E-03
             183               1     106.056E-03     118.227E-03    -10.0426E-03    -10.2268E-03
             184               1     117.650E-03     116.843E-03    -11.4565E-03    -10.2588E-03
             185               1     126.332E-03     124.569E-03    -11.1283E-03    -11.0649E-03
             186               1     129.155E-03     136.818E-03    -12.1272E-03    -11.7486E-03
             187               1     144.392E-03     140.670E-03    -12.1602E-03    -11.7185E-03
             188               1     148.539E-03     148.034E-03    -12.6667E-03    -13.3185E-03
             189               1     150.736E-03     175.361E-03    -13.8030E-03    -12.6080E-03
             190               1     199.727E-03     148.854E-03    -11.8462E-03    -14.7540E-03
             191               1     149.313E-03     193.584E-03    -12.3677E-03    -16.5420E-03
             192               1     143.773E-03     167.909E-03    -10.8468E-03    -6.26523E-03
             193               1     192.608E-03     153.656E-03    -12.5959E-03    -8.21606E-03
             194               1     164.700E-03     185.726E-03    -9.16250E-03    -9.66950E-03
             195               1     178.536E-03     177.503E-03    -11.1733E-03    -9.54271E-03
             196               1     188.451E-03     185.436E-03    -10.8868E-03    -10.9119E-03
             197               1     188.261E-03     199.666E-03    -12.1272E-03    -11.7486E-03
             198               1     206.620E-03     201.634E-03    -12.4017E-03    -11.8715E-03
             199               1     209.633E-03     208.894E-03    -12.9500E-03    -14.0346E-03
             200               1     209.691E-03     243.146E-03    -14.6831E-03    -13.1653E-03
             201               1     273.391E-03     205.344E-03    -11.7040E-03    -15.9940E-03
             202               1     204.006E-03     261.502E-03    -12.6562E-03    -18.4910E-03
             203               1     198.384E-03     234.892E-03    -13.5327E-03    -6.52276E-03
             204               1     266.276E-03     207.266E-03    -13.9188E-03    -8.56351E-03
             205               1     222.149E-03     256.400E-03    -11.8127E-03    -11.6073E-03
             206               1     246.659E-03     236.396E-03    -11.8217E-03    -10.3718E-03
             207               1     252.211E-03     245.120E-03    -13.4710E-03    -14.6464E-03
             208               1     244.372E-03     286.349E-03    -13.9680E-03    -13.0875E-03
             209               1     319.142E-03     237.897E-03    -11.8917E-03    -16.9820E-03
             210               1     237.347E-03     302.931E-03    -12.0655E-03    -19.6567E-03
             211               1     35.5966E-03     34.9960E-03    -20.5168E-03    -19.9150E-03
             212               1     35.8625E-03     35.1954E-03    -20.6981E-03    -20.1096E-03
             213               1     37.0001E-03     38.2046E-03    -20.5102E-03    -21.3355E-03
             214               1     41.5344E-03     41.6964E-03    -21.2295E-03    -21.3504E-03
             215               1     45.0645E-03     45.0261E-03    -21.1538E-03    -21.4033E-03
             216               1     48.5443E-03     56.2672E-03    -21.6240E-03    -22.4890E-03
             217               1     66.8061E-03     53.3535E-03    -22.6924E-03    -21.7934E-03
             218               1     56.4613E-03     68.2255E-03    -23.6418E-03    -22.5264E-03
             219               1     49.5690E-03     52.3413E-03    -16.6681E-03    -16.4815E-03
             220               1     61.5837E-03     55.8748E-03    -17.5953E-03    -17.5767E-03
             221               1     60.5766E-03     67.3442E-03    -18.6320E-03    -19.2379E-03
             222               1     71.4952E-03     70.7187E-03    -19.6980E-03    -19.7967E-03
             223               1     75.6255E-03     80.2550E-03    -19.6044E-03    -20.5072E-03
             224               1     86.3215E-03     87.5407E-03    -21.4862E-03    -21.2029E-03
             225               1     93.2712E-03     91.5350E-03    -21.1429E-03    -21.2183E-03
             226               1     93.7130E-03     113.829E-03    -22.6937E-03    -23.5558E-03
             227               1     132.295E-03     101.923E-03    -25.1106E-03    -23.5431E-03
             228               1     102.536E-03     129.318E-03    -27.2777E-03    -25.4052E-03
             229               1     93.0283E-03     109.327E-03    -12.2508E-03    -12.6394E-03
             230               1     124.099E-03     103.750E-03    -14.0369E-03    -14.8750E-03
             231               1     108.129E-03     124.854E-03    -16.8219E-03    -16.9307E-03
             232               1     122.180E-03     123.113E-03    -17.8485E-03    -18.8398E-03
             233               1     130.777E-03     132.338E-03    -19.0382E-03    -19.3144E-03
             234               1     133.132E-03     142.266E-03    -19.5959E-03    -20.2379E-03
             235               1     147.519E-03     148.746E-03    -21.8743E-03    -21.4864E-03
             236               1     154.059E-03     152.236E-03    -21.9118E-03    -21.4801E-03
             237               1     150.210E-03     182.440E-03    -24.1520E-03    -25.2240E-03
             238               1     207.699E-03     160.415E-03    -28.2284E-03    -25.8601E-03
             239               1     157.458E-03     199.311E-03    -31.5962E-03    -28.9681E-03
             240               1     146.925E-03     177.964E-03    -7.72316E-03    -8.81778E-03
             241               1     198.288E-03     161.471E-03    -10.7154E-03    -12.3040E-03
             242               1     164.354E-03     192.976E-03    -15.1064E-03    -14.9898E-03
             243               1     183.166E-03     183.770E-03    -16.8975E-03    -18.2218E-03
             244               1     192.190E-03     194.459E-03    -18.3745E-03    -18.8060E-03
             245               1     192.014E-03     205.432E-03    -19.5959E-03    -20.2379E-03
             246               1     209.230E-03     211.153E-03    -22.5381E-03    -21.9947E-03
             247               1     215.587E-03     213.411E-03    -22.8628E-03    -22.0980E-03
             248               1     207.298E-03     251.433E-03    -25.8675E-03    -27.1650E-03
             249               1     282.914E-03     219.200E-03    -31.5499E-03    -28.4311E-03
             250               1     212.791E-03     269.154E-03    -36.1238E-03    -32.7897E-03
             251               1     200.868E-03     247.031E-03    -4.89130E-03    -6.85821E-03
             252               1     273.786E-03     218.418E-03    -10.7266E-03    -11.6907E-03
             253               1     216.918E-03     262.540E-03    -14.9412E-03    -15.5682E-03
             254               1     249.562E-03     245.237E-03    -21.6082E-03    -21.0858E-03
             255               1     256.211E-03     251.630E-03    -20.7751E-03    -21.6679E-03
             256               1     240.658E-03     296.138E-03    -27.1930E-03    -28.2563E-03
             257               1     331.519E-03     255.720E-03    -32.6640E-03    -30.2123E-03
             258               1     247.945E-03     314.252E-03    -39.2673E-03    -35.5833E-03
             259               1     46.5570E-03     47.2772E-03    -26.7984E-03    -26.8981E-03
             260               1     50.9303E-03     51.0802E-03    -29.3877E-03    -29.3921E-03
             261               1     51.0005E-03     51.5995E-03    -28.6470E-03    -29.2066E-03
             262               1     53.9648E-03     54.7404E-03    -29.4494E-03    -29.6762E-03
             263               1     59.1985E-03     56.8885E-03    -30.3745E-03    -29.6979E-03
             264               1     59.1435E-03     64.6271E-03    -29.2700E-03    -30.8088E-03
             265               1     76.7176E-03     67.9992E-03    -34.3474E-03    -33.1887E-03
             266               1     74.5043E-03     79.0847E-03    -34.1739E-03    -32.0525E-03
             267               1     50.2586E-03     53.8595E-03    -18.7157E-03    -20.8951E-03
             268               1     64.2304E-03     61.6476E-03    -23.4739E-03    -24.6536E-03
             269               1     70.7637E-03     72.6691E-03    -26.8184E-03    -26.5206E-03
             270               1     77.8716E-03     77.6961E-03    -27.0886E-03    -27.8923E-03
             271               1     84.6668E-03     84.4766E-03    -27.9809E-03    -27.9784E-03
             272               1     90.2904E-03     91.8868E-03    -28.7105E-03    -29.4000E-03
             273               1     100.925E-03     94.8029E-03    -31.0876E-03    -29.5546E-03
             274               1     99.1946E-03     111.690E-03    -29.5336E-03    -32.3498E-03
             275               1     131.562E-03     109.715E-03    -40.1714E-03    -37.5309E-03
             276               1     123.845E-03     135.163E-03    -43.0395E-03    -38.0596E-03
             277               1     92.3967E-03     103.337E-03    -9.00484E-03    -13.8889E-03
             278               1     115.612E-03     101.191E-03    -16.7815E-03    -19.2916E-03
             279               1     114.736E-03     122.252E-03    -25.1818E-03    -23.6859E-03
             280               1     126.954E-03     123.831E-03    -24.8032E-03    -26.5887E-03
             281               1     132.839E-03     133.828E-03    -26.8635E-03    -26.7097E-03
             282               1     140.755E-03     139.688E-03    -27.6986E-03    -27.9469E-03
             283               1     146.530E-03     148.736E-03    -28.7102E-03    -29.6948E-03
             284               1     159.104E-03     149.469E-03    -32.5837E-03    -30.0181E-03
             285               1     153.653E-03     172.992E-03    -30.3986E-03    -34.6320E-03
             286               1     198.221E-03     162.989E-03    -46.9762E-03    -42.7054E-03
             287               1     182.538E-03     201.276E-03    -53.2048E-03    -45.1397E-03
             288               1     149.269E-03     167.812E-03     1.33985E-03    -6.57491E-03
             289               1     181.168E-03     153.732E-03    -9.71464E-03    -13.8117E-03
             290               1     169.882E-03     183.764E-03    -23.9608E-03    -21.1241E-03
             291               1     186.536E-03     180.267E-03    -22.9823E-03    -25.7861E-03
             292               1     191.359E-03     192.963E-03    -26.4313E-03    -26.0111E-03
             293               1     200.102E-03     198.364E-03    -27.6986E-03    -27.9469E-03
             294               1     205.508E-03     208.372E-03    -29.1424E-03    -30.3935E-03
             295               1     219.767E-03     206.840E-03    -34.4046E-03    -30.8208E-03
             296               1     210.224E-03     236.140E-03    -31.6196E-03    -37.1939E-03
             297               1     266.238E-03     218.177E-03    -54.0431E-03    -48.1852E-03
             298               1     242.208E-03     268.252E-03    -63.5494E-03    -52.4537E-03
             299               1     207.327E-03     233.546E-03     10.0788E-03    -1.12578E-03
             300               1     247.355E-03     207.468E-03    -4.58957E-03    -10.4092E-03
             301               1     226.808E-03     245.579E-03    -25.5319E-03    -21.1960E-03
             302               1     245.207E-03     239.979E-03    -24.8236E-03    -29.5680E-03
             303               1     258.149E-03     245.413E-03    -35.0003E-03    -29.8061E-03
             304               1     247.604E-03     277.425E-03    -32.3851E-03    -38.8193E-03
             305               1     312.079E-03     255.352E-03    -59.1456E-03    -52.1716E-03
             306               1     283.198E-03     314.254E-03    -71.0511E-03    -57.8249E-03
             307               1     182.889E-03     175.157E-03     17.5696E-03     18.0969E-03
             308               1     177.428E-03     189.476E-03     6.97890E-03     6.17626E-03
             309               1     171.461E-03     195.303E-03     13.2756E-03     15.6672E-03
             310               1     229.351E-03     182.361E-03     12.4200E-03     12.8009E-03
             311               1     186.953E-03     240.223E-03     12.6884E-03     12.9785E-03
             312               1     253.523E-03     191.292E-03     13.9052E-03     12.9638E-03
             313               1     187.832E-03     231.685E-03     12.3377E-03     9.61907E-03
             314               1     216.151E-03     206.239E-03     9.34791E-03     8.92362E-03
             315               1     212.130E-03     223.692E-03    -1.95157E-03    -1.58784E-03
             316               1     203.377E-03     231.130E-03     6.15467E-03     7.04987E-03
             317               1     270.392E-03     214.854E-03     4.02590E-03     2.51933E-03
             318               1     224.083E-03     289.128E-03     4.58704E-03     4.42837E-03
             319               1     296.111E-03     224.691E-03     4.54301E-03     6.08494E-03
             320               1     221.083E-03     271.304E-03     2.52505E-03     1.58838E-03
             321               1     240.552E-03     233.421E-03    -2.51101E-03    -1.75502E-03
             322               1     237.155E-03     251.478E-03    -7.48097E-03    -8.15520E-03
             323               1     226.813E-03     258.523E-03    -6.59324E-03    -4.81482E-03
             324               1     307.821E-03     243.226E-03    -7.58406E-03    -5.80222E-03
             325               1     253.549E-03     320.519E-03    -4.84744E-03    -4.65345E-03
             326               1     333.998E-03     253.014E-03    -1.13450E-03    -2.96339E-03
             327               1     244.332E-03     298.793E-03    -2.27424E-03    -4.05881E-03
             328               1     258.110E-03     249.236E-03    -11.6353E-03    -11.7618E-03
             329               1     256.296E-03     266.936E-03    -15.8896E-03    -15.3884E-03
             330               1     245.784E-03     290.223E-03    -14.9735E-03    -6.86986E-03
             331               1     330.911E-03     250.026E-03    -17.2287E-03    -11.5116E-03
             332               1     266.494E-03     340.288E-03    -13.0235E-03    -12.4357E-03
             333               1     354.675E-03     257.403E-03    -9.93763E-03    -14.9980E-03
             334               1     262.321E-03     331.339E-03    -10.9897E-03    -19.6220E-03
             335               1     264.241E-03     260.033E-03    -19.9941E-03    -20.2201E-03
             336               1     259.247E-03     271.626E-03    -20.4688E-03    -19.8873E-03
             337               1     247.248E-03     305.006E-03    -8.32262E-03    -9.10196E-03
             338               1     339.409E-03     255.976E-03    -11.1426E-03    -13.2667E-03
             339               1     251.093E-03     350.364E-03    -21.7450E-03    -22.6545E-03
             340               1     368.690E-03     271.685E-03    -31.0596E-03    -28.7384E-03
             341               1     271.220E-03     345.773E-03    -36.3931E-03    -34.1425E-03
             342               1     258.469E-03     252.604E-03    -36.1497E-03    -33.7602E-03
             343               1     259.595E-03     268.409E-03    -23.2985E-03    -25.1475E-03
             344               1     254.951E-03     289.702E-03     13.9481E-03    -425.970E-06
             345               1     308.398E-03     246.525E-03    -8.60211E-03    -11.4529E-03
             346               1     263.037E-03     317.462E-03    -29.2762E-03    -30.6103E-03
             347               1     345.076E-03     274.497E-03    -56.3153E-03    -51.9863E-03
             348               1     311.317E-03     347.969E-03    -73.6229E-03    -58.2655E-03
             349               1     191.138E-03     237.199E-03    -16.6307E-03    -14.1105E-03
             350               1     256.930E-03     199.855E-03    -17.8717E-03    -17.3136E-03
             351               1     198.469E-03     225.255E-03    -16.3943E-03    -17.6054E-03
             352               1     192.250E-03     208.578E-03    -18.3236E-03    -17.3759E-03
             353               1     214.784E-03     179.865E-03    -17.4858E-03    -17.3235E-03
             354               1     161.433E-03     179.911E-03    -18.0204E-03    -20.0699E-03
             355               1     168.418E-03     169.667E-03    -10.6997E-03    -10.7433E-03
             356               1     222.643E-03     275.638E-03    -5.34034E-03    -4.21712E-03
             357               1     299.088E-03     231.702E-03    -6.80994E-03    -7.60361E-03
             358               1     235.835E-03     268.158E-03    -5.38048E-03    -7.76606E-03
             359               1     227.140E-03     248.382E-03    -6.97544E-03    -4.31531E-03
             360               1     254.325E-03     210.312E-03    -5.53273E-03    -4.89816E-03
             361               1     189.419E-03     211.830E-03    -6.55551E-03    -7.52622E-03
             362               1     199.526E-03     201.269E-03    -2.96760E-03    -3.01124E-03
             363               1     246.123E-03     304.741E-03     2.93051E-03     5.52687E-03
             364               1     336.111E-03     259.820E-03     1.50673E-03     4.21841E-03
             365               1     264.430E-03     295.032E-03     5.32861E-03     5.60779E-03
             366               1     256.144E-03     276.747E-03     6.52980E-03     5.58660E-03
             367               1     289.710E-03     237.997E-03     9.62571E-03     7.27871E-03
             368               1     213.498E-03     240.283E-03     7.82405E-03     5.34210E-03
             369               1     223.956E-03     226.067E-03     4.77319E-03     4.72955E-03
             370               1     264.457E-03     339.288E-03     14.8768E-03     23.7767E-03
             371               1     358.986E-03     266.403E-03     15.4016E-03     21.3240E-03
             372               1     276.488E-03     311.262E-03     18.1408E-03     15.6140E-03
             373               1     267.695E-03     293.589E-03     16.7729E-03     18.1675E-03
             374               1     316.142E-03     246.552E-03     19.7973E-03     13.2358E-03
             375               1     232.873E-03     273.569E-03     20.1565E-03     11.8999E-03
             376               1     239.667E-03     241.998E-03     11.9952E-03     11.9516E-03
             377               1     278.447E-03     353.744E-03     47.7060E-03     43.5200E-03
             378               1     371.403E-03     288.602E-03     37.5007E-03     36.1041E-03
             379               1     274.258E-03     321.660E-03     32.5134E-03     34.7061E-03
             380               1     265.383E-03     298.402E-03     24.0676E-03     23.9125E-03
             381               1     321.526E-03     260.967E-03     20.7680E-03     20.6045E-03
             382               1     234.546E-03     287.164E-03     10.6599E-03     13.2042E-03
             383               1     245.362E-03     247.748E-03     18.2063E-03     18.1626E-03
             384               1     323.839E-03     358.820E-03     84.9483E-03     70.1596E-03
             385               1     353.270E-03     290.298E-03     71.6038E-03     62.5983E-03
             386               1     279.062E-03     304.429E-03     36.5104E-03     47.4564E-03
             387               1     276.950E-03     282.638E-03     43.4028E-03     33.7308E-03
             388               1     288.219E-03     246.280E-03     13.3010E-03     21.1760E-03
             389               1     240.935E-03     271.138E-03    -4.79994E-03     8.19173E-03
             390               1     240.495E-03     242.772E-03     22.9831E-03     22.9395E-03
             391               1     1.80723E-15     2.36803E-15     535.163E-18     990.350E-18
             392               1     2.32685E-15     4.16044E-15    -605.447E-18    -920.066E-18
             393               1     792.731E-18     1.41108E-15     368.534E-18     394.223E-18
             394               1     2.23303E-15     2.52941E-15    -759.149E-18    -766.365E-18
             395               1     1.86199E-15     2.73942E-15     387.440E-18     375.317E-18
             396               1     4.70215E-15     4.34806E-15    -2.38092E-15    -2.19562E-15
             397               1     5.53989E-15     5.11881E-15     282.188E-18     99.1900E-18
             398               1     2.24475E-15     2.47517E-15    -906.006E-18    -1.38226E-15
             399               1     4.03429E-15     3.90656E-15     2.01532E-15     2.17984E-15
             400               1     3.09178E-15     2.96633E-15    -1.30866E-15    -979.610E-18
             401               1     2.60354E-15     3.10676E-15    -1.37022E-15    -1.68080E-15
             402               1     1.97382E-15     2.39276E-15     398.697E-18     364.060E-18
             403               1     730.414E-18     260.769E-18    -76.4898E-18     76.4898E-18
             404               1     5.87334E-15     5.31424E-15     503.660E-18     640.475E-18
             405               1     2.24956E-15     1.18563E-15     921.509E-18     604.004E-18
             406               1     3.38497E-15     3.21308E-15     619.013E-18     906.500E-18
             407               1     1.84625E-15     1.56086E-15     757.561E-18     767.952E-18
             408               1     2.08023E-15     2.28975E-15    -210.131E-18     210.131E-18
             409               1     3.34942E-15     3.39722E-15    -640.950E-18    -884.563E-18
             410               1     1.73176E-15     1.35879E-15    -307.486E-18    -455.270E-18
             411               1     6.56007E-15     5.65213E-15     235.326E-18     527.431E-18
             412               1     3.86162E-15     3.19296E-15    -2.14877E-15    -1.66501E-15
             413               1     2.53896E-15     2.19708E-15     1.39756E-15     890.708E-18
             414               1     5.75437E-15     5.23859E-15     1.01136E-15     1.27691E-15
             415               1     5.34396E-15     5.49087E-15    -980.187E-18    -1.30808E-15
             416               1     3.93736E-15     3.38801E-15    -1.16492E-15    -1.12335E-15
             417               1     1.23393E-15     1.46524E-15     355.401E-18     407.356E-18
             418               1     4.61401E-15     3.80265E-15    -672.123E-18    -853.390E-18
             419               1     1.51032E-15     916.126E-18    -13.2775E-18     13.2775E-18
             420               1     1.96698E-15     3.18959E-15    -781.807E-18    -743.706E-18
             421               1     1.29932E-15     533.550E-18     472.589E-18     290.168E-18
             422               1     1.06512E-15     1.43233E-15    -234.171E-18    -528.585E-18
             423               1     2.80162E-15     2.02136E-15     818.176E-18     707.338E-18
             424               1     1.71852E-15     1.71030E-15    -770.261E-18    -755.252E-18
             425               1     1.39288E-15     1.31297E-15     785.848E-18     739.665E-18
             426               1     612.970E-18     975.186E-18    -223.203E-18    -539.553E-18
             427               1     1.13324E-15     958.842E-18    -75.0466E-18     75.0466E-18
             428               1     1.93860E-15     2.21581E-15    -147.784E-18     147.784E-18
             429               1     1.39406E-15     1.22183E-15    -477.207E-18    -285.550E-18
             430               1     917.310E-18     1.28061E-15    -143.166E-18     143.166E-18
             431               1     2.16552E-15     2.29206E-15    -1.12566E-15    -1.16261E-15
             432               1     2.15464E-15     2.29057E-15     1.12913E-15     1.15914E-15
             433               1     166.567E-03     207.114E-03    -17.3757E-03    -15.7575E-03
             434               1     224.243E-03     173.331E-03    -18.3476E-03    -18.7292E-03
             435               1     173.373E-03     200.093E-03    -16.5862E-03    -18.7743E-03
             436               1     175.907E-03     173.663E-03    -17.7496E-03    -18.5495E-03
             437               1     168.976E-03     168.279E-03    -18.0882E-03    -18.0996E-03
             438               1     157.464E-03     160.403E-03    -18.4506E-03    -18.0809E-03
             439               1     148.761E-03     145.984E-03    -18.7357E-03    -17.5531E-03
             440               1     133.353E-03     144.737E-03    -19.3251E-03    -17.8085E-03
             441               1     141.117E-03     120.727E-03    -18.5558E-03    -17.4741E-03
             442               1     107.968E-03     114.985E-03    -18.6067E-03    -19.4770E-03
             443               1     123.173E-03     155.396E-03    -17.5809E-03    -16.3774E-03
             444               1     165.183E-03     126.551E-03    -18.3823E-03    -18.5200E-03
             445               1     124.521E-03     144.599E-03    -17.0427E-03    -18.6133E-03
             446               1     124.080E-03     122.631E-03    -17.9139E-03    -18.3834E-03
             447               1     116.976E-03     115.880E-03    -18.1486E-03    -18.0965E-03
             448               1     105.727E-03     108.177E-03    -18.3902E-03    -18.0840E-03
             449               1     97.5722E-03     95.6033E-03    -18.5714E-03    -17.7191E-03
             450               1     85.5685E-03     90.4620E-03    -18.8686E-03    -17.9695E-03
             451               1     83.8947E-03     75.5169E-03    -18.5211E-03    -17.6833E-03
             452               1     66.6832E-03     66.0674E-03    -18.4015E-03    -18.8571E-03
             453               1     82.3461E-03     105.992E-03    -17.9856E-03    -17.1526E-03
             454               1     108.818E-03     82.6338E-03    -18.5943E-03    -18.5004E-03
             455               1     78.8290E-03     92.0422E-03    -17.6763E-03    -18.6753E-03
             456               1     75.6920E-03     75.1250E-03    -18.1744E-03    -18.4120E-03
             457               1     69.0084E-03     67.6620E-03    -18.2669E-03    -18.2949E-03
             458               1     59.2842E-03     60.4990E-03    -18.4067E-03    -18.2097E-03
             459               1     51.8516E-03     51.7065E-03    -18.3685E-03    -17.9652E-03
             460               1     45.5217E-03     44.4439E-03    -18.6269E-03    -18.1242E-03
             461               1     38.7777E-03     37.7979E-03    -18.3335E-03    -18.0581E-03
             462               1     33.9928E-03     34.6578E-03    -18.7151E-03    -18.1148E-03
             463               1     32.5064E-03     31.6015E-03    -18.1262E-03    -18.1095E-03
             464               1     32.9204E-03     41.9621E-03    -16.8418E-03    -16.5206E-03
             465               1     37.5297E-03     30.3701E-03    -17.0549E-03    -16.8529E-03
             466               1     29.4355E-03     31.5602E-03    -16.8797E-03    -16.8377E-03
             467               1     29.3289E-03     30.8498E-03    -16.8717E-03    -16.7971E-03
             468               1     192.570E-03     239.446E-03    -7.16470E-03    -5.46239E-03
             469               1     258.473E-03     198.126E-03    -9.16553E-03    -8.77484E-03
             470               1     204.404E-03     234.776E-03    -7.86162E-03    -8.86567E-03
             471               1     204.825E-03     201.941E-03    -8.03980E-03    -6.92424E-03
             472               1     198.676E-03     195.758E-03    -7.82053E-03    -7.75104E-03
             473               1     184.353E-03     187.325E-03    -6.47853E-03    -6.73119E-03
             474               1     174.749E-03     171.166E-03    -6.45304E-03    -7.30191E-03
             475               1     156.387E-03     171.899E-03    -6.71027E-03    -5.79072E-03
             476               1     166.184E-03     139.888E-03    -5.66872E-03    -6.00970E-03
             477               1     125.446E-03     135.092E-03    -6.99837E-03    -8.22227E-03
             478               1     139.884E-03     177.312E-03    -7.13698E-03    -5.92237E-03
             479               1     187.931E-03     142.109E-03    -8.58273E-03    -8.31398E-03
             480               1     144.583E-03     167.254E-03    -7.66972E-03    -8.35318E-03
             481               1     141.869E-03     140.062E-03    -7.77534E-03    -6.98719E-03
             482               1     135.152E-03     132.242E-03    -7.59686E-03    -7.58107E-03
             483               1     120.866E-03     123.832E-03    -6.70219E-03    -6.90117E-03
             484               1     111.876E-03     109.374E-03    -6.71750E-03    -7.23896E-03
             485               1     96.7196E-03     104.532E-03    -6.90216E-03    -6.30321E-03
             486               1     95.8688E-03     84.0926E-03    -6.25152E-03    -6.47056E-03
             487               1     73.0513E-03     73.3682E-03    -7.02609E-03    -7.76229E-03
             488               1     88.9289E-03     117.077E-03    -7.35968E-03    -6.61287E-03
             489               1     119.562E-03     87.9552E-03    -8.27636E-03    -8.10053E-03
             490               1     86.8306E-03     101.901E-03    -7.74811E-03    -8.07930E-03
             491               1     81.1263E-03     80.2461E-03    -7.83794E-03    -7.26037E-03
             492               1     74.0826E-03     71.2454E-03    -7.72752E-03    -7.65312E-03
             493               1     60.4389E-03     62.5520E-03    -7.26850E-03    -7.37908E-03
             494               1     51.4132E-03     51.0878E-03    -7.41474E-03    -7.52461E-03
             495               1     41.4853E-03     41.1744E-03    -6.98356E-03    -7.24872E-03
             496               1     31.1300E-03     30.1979E-03    -7.54521E-03    -7.31088E-03
             497               1     20.0083E-03     23.6532E-03    -6.91375E-03    -7.12010E-03
             498               1     18.1177E-03     13.7249E-03    -7.47600E-03    -7.64799E-03
             499               1     19.8551E-03     35.4188E-03    -5.20639E-03    -5.06574E-03
             500               1     27.1322E-03     13.6213E-03    -5.62806E-03    -5.59675E-03
             501               1     10.4615E-03     17.7962E-03    -5.50810E-03    -5.60135E-03
             502               1     9.93554E-03     13.6734E-03    -5.37068E-03    -5.28828E-03
             503               1     213.420E-03     267.748E-03     1.92559E-03     4.94257E-03
             504               1     291.193E-03     223.636E-03     53.7966E-06     4.06209E-03
             505               1     225.289E-03     257.377E-03     2.92098E-03     5.32547E-03
             506               1     226.559E-03     221.166E-03     3.30056E-03     4.53062E-03
             507               1     217.664E-03     214.173E-03     4.51864E-03     4.79093E-03
             508               1     204.307E-03     205.200E-03     4.68071E-03     3.64302E-03
             509               1     195.143E-03     190.260E-03     6.00551E-03     3.90830E-03
             510               1     177.082E-03     193.877E-03     6.05809E-03     3.70934E-03
             511               1     194.497E-03     162.836E-03     8.14895E-03     4.96718E-03
             512               1     144.625E-03     159.147E-03     6.17202E-03     3.68806E-03
             513               1     153.861E-03     196.691E-03     2.63333E-03     4.73348E-03
             514               1     210.348E-03     159.343E-03     1.40299E-03     4.21294E-03
             515               1     158.350E-03     182.259E-03     3.44383E-03     5.05612E-03
             516               1     156.399E-03     152.693E-03     3.75138E-03     4.42690E-03
             517               1     147.455E-03     144.382E-03     4.54565E-03     4.59962E-03
             518               1     134.111E-03     135.416E-03     4.65370E-03     3.83434E-03
             519               1     125.014E-03     121.811E-03     5.55468E-03     4.01202E-03
             520               1     110.198E-03     118.807E-03     5.53523E-03     3.97869E-03
             521               1     113.740E-03     98.6153E-03     6.79976E-03     4.81633E-03
             522               1     85.1596E-03     88.2040E-03     5.46428E-03     3.89715E-03
             523               1     95.9307E-03     127.513E-03     3.04224E-03     4.22916E-03
             524               1     131.663E-03     96.9198E-03     2.43485E-03     4.08987E-03
             525               1     93.2747E-03     109.170E-03     3.63466E-03     4.52959E-03
             526               1     88.1412E-03     86.3364E-03     3.82659E-03     4.07340E-03
             527               1     79.2089E-03     76.5511E-03     4.21623E-03     4.17017E-03
             528               1     65.9037E-03     67.3602E-03     4.08635E-03     3.66412E-03
             529               1     56.0977E-03     55.8446E-03     4.65701E-03     3.92655E-03
             530               1     46.4629E-03     45.0318E-03     4.37811E-03     3.44203E-03
             531               1     35.3200E-03     35.3957E-03     4.90968E-03     4.00870E-03
             532               1     24.1090E-03     26.7326E-03     4.59617E-03     4.11344E-03
             533               1     19.6090E-03     11.4828E-03     4.49306E-03     3.80286E-03
             534               1     21.3027E-03     36.6591E-03     6.05469E-03     5.88917E-03
             535               1     29.7752E-03     16.4238E-03     6.21736E-03     6.41660E-03
             536               1     12.1579E-03     19.0386E-03     6.41135E-03     6.53420E-03
             537               1     11.8264E-03     13.1111E-03     6.18349E-03     5.88249E-03
             538               1     231.085E-03     299.189E-03     16.6095E-03     23.4289E-03
             539               1     310.493E-03     231.621E-03     15.9907E-03     20.6831E-03
             540               1     237.751E-03     274.711E-03     18.5596E-03     17.3311E-03
             541               1     235.365E-03     233.538E-03     17.6755E-03     18.4738E-03
             542               1     228.500E-03     226.721E-03     15.6594E-03     15.5944E-03
             543               1     214.235E-03     219.094E-03     16.8230E-03     16.1183E-03
             544               1     205.085E-03     201.184E-03     14.7625E-03     13.6519E-03
             545               1     189.389E-03     211.508E-03     14.4575E-03     14.0029E-03
             546               1     216.532E-03     173.679E-03     17.0263E-03     12.2704E-03
             547               1     162.370E-03     187.489E-03     15.8362E-03     10.2241E-03
             548               1     166.863E-03     219.033E-03     16.4806E-03     21.2281E-03
             549               1     223.724E-03     165.382E-03     16.1633E-03     19.2809E-03
             550               1     167.900E-03     194.718E-03     17.8759E-03     16.7764E-03
             551               1     163.296E-03     162.392E-03     17.1900E-03     17.6702E-03
             552               1     156.131E-03     153.789E-03     15.8534E-03     15.6817E-03
             553               1     142.008E-03     146.233E-03     16.6291E-03     16.0310E-03
             554               1     133.320E-03     130.363E-03     15.2480E-03     14.4555E-03
             555               1     120.078E-03     132.015E-03     15.1412E-03     14.5576E-03
             556               1     130.535E-03     108.146E-03     16.8537E-03     13.6725E-03
             557               1     99.0908E-03     108.325E-03     15.9651E-03     12.4249E-03
             558               1     104.727E-03     140.994E-03     15.9999E-03     18.6929E-03
             559               1     139.441E-03     101.393E-03     16.0275E-03     17.5613E-03
             560               1     100.524E-03     117.235E-03     16.8810E-03     15.8656E-03
             561               1     93.7852E-03     93.9450E-03     16.4238E-03     16.5463E-03
             562               1     86.9116E-03     83.9356E-03     15.7987E-03     15.3995E-03
             563               1     72.9516E-03     76.4091E-03     16.1827E-03     15.6854E-03
             564               1     64.5013E-03     64.2463E-03     15.2837E-03     15.0535E-03
             565               1     56.2989E-03     55.3142E-03     15.7795E-03     14.9219E-03
             566               1     45.9925E-03     46.9226E-03     14.9527E-03     14.6225E-03
             567               1     41.5977E-03     40.3032E-03     16.4116E-03     14.7528E-03
             568               1     35.0725E-03     29.9229E-03     15.3807E-03     14.3102E-03
             569               1     35.6946E-03     47.5650E-03     17.4239E-03     18.1060E-03
             570               1     41.1924E-03     31.8109E-03     17.7464E-03     17.3382E-03
             571               1     32.0741E-03     34.4624E-03     18.1523E-03     17.0637E-03
             572               1     31.2973E-03     31.4016E-03     17.7424E-03     17.7255E-03
             573               1     242.884E-03     308.883E-03     45.1780E-03     41.3000E-03
             574               1     323.379E-03     249.181E-03     39.8110E-03     36.3627E-03
             575               1     235.590E-03     285.904E-03     33.7393E-03     35.1007E-03
             576               1     243.588E-03     239.896E-03     29.3810E-03     29.5588E-03
             577               1     232.078E-03     237.984E-03     30.2312E-03     28.8099E-03
             578               1     216.716E-03     227.797E-03     24.5435E-03     26.7780E-03
             579               1     212.802E-03     209.905E-03     24.9896E-03     25.1121E-03
             580               1     187.350E-03     220.194E-03     21.3385E-03     21.8812E-03
             581               1     224.314E-03     183.274E-03     17.0094E-03     18.3199E-03
             582               1     165.806E-03     200.157E-03     13.2404E-03     14.4044E-03
             583               1     178.168E-03     226.480E-03     39.8551E-03     36.8174E-03
             584               1     234.666E-03     180.336E-03     36.0107E-03     33.3556E-03
             585               1     168.750E-03     204.742E-03     31.6725E-03     32.8974E-03
             586               1     171.138E-03     168.644E-03     28.6491E-03     28.8177E-03
             587               1     161.183E-03     164.319E-03     29.2832E-03     28.4713E-03
             588               1     146.231E-03     154.394E-03     25.4915E-03     27.1166E-03
             589               1     141.143E-03     139.453E-03     25.7215E-03     25.8533E-03
             590               1     121.963E-03     140.530E-03     23.4053E-03     24.0844E-03
             591               1     137.465E-03     116.276E-03     20.8097E-03     21.3271E-03
             592               1     103.650E-03     119.982E-03     18.5633E-03     18.8870E-03
             593               1     116.004E-03     146.408E-03     34.2495E-03     31.9815E-03
             594               1     148.671E-03     114.387E-03     31.9014E-03     30.0054E-03
             595               1     105.221E-03     126.622E-03     29.2813E-03     30.3024E-03
             596               1     102.490E-03     101.467E-03     27.5677E-03     27.6162E-03
             597               1     94.9745E-03     95.1431E-03     28.0390E-03     27.7736E-03
             598               1     81.6538E-03     86.5443E-03     26.1601E-03     27.0179E-03
             599               1     75.9123E-03     76.7170E-03     26.5000E-03     26.6183E-03
             600               1     66.8088E-03     68.4676E-03     25.4272E-03     26.1646E-03
             601               1     58.9034E-03     61.6027E-03     25.3350E-03     25.8568E-03
             602               1     53.5768E-03     52.8596E-03     24.3591E-03     24.1762E-03
             603               1     48.9674E-03     46.6807E-03     24.0396E-03     23.3587E-03
             604               1     54.1498E-03     60.3168E-03     29.2939E-03     28.6359E-03
             605               1     57.1468E-03     51.2549E-03     28.5206E-03     28.5682E-03
             606               1     49.1704E-03     51.8147E-03     28.1887E-03     28.3925E-03
             607               1     48.5412E-03     47.5606E-03     27.7641E-03     27.3774E-03
             608               1     280.387E-03     310.638E-03     77.6821E-03     65.0303E-03
             609               1     307.392E-03     251.770E-03     67.9146E-03     60.9215E-03
             610               1     240.559E-03     269.951E-03     41.8989E-03     48.2797E-03
             611               1     249.495E-03     235.348E-03     44.7887E-03     40.8807E-03
             612               1     232.053E-03     234.630E-03     39.0345E-03     40.3588E-03
             613               1     223.345E-03     223.430E-03     36.5746E-03     36.1024E-03
             614               1     214.359E-03     208.831E-03     32.6673E-03     35.6581E-03
             615               1     196.412E-03     210.408E-03     33.2177E-03     30.1544E-03
             616               1     204.726E-03     175.221E-03     16.7514E-03     21.7462E-03
             617               1     167.118E-03     188.275E-03     4.22530E-03     13.2341E-03
             618               1     210.330E-03     231.702E-03     65.4393E-03     56.3976E-03
             619               1     227.475E-03     187.378E-03     59.3874E-03     54.3923E-03
             620               1     174.516E-03     196.263E-03     40.4520E-03     45.2588E-03
             621               1     179.178E-03     168.681E-03     42.7685E-03     40.0103E-03
             622               1     163.596E-03     165.789E-03     38.6245E-03     39.6494E-03
             623               1     155.306E-03     155.131E-03     36.9846E-03     36.8118E-03
             624               1     145.736E-03     143.531E-03     34.6876E-03     36.5285E-03
             625               1     132.647E-03     139.469E-03     34.6646E-03     33.1753E-03
             626               1     129.204E-03     115.413E-03     25.2786E-03     28.2754E-03
             627               1     102.207E-03     113.959E-03     16.4681E-03     21.8668E-03
             628               1     142.418E-03     154.960E-03     52.9427E-03     47.4405E-03
             629               1     150.554E-03     126.368E-03     50.5167E-03     47.4547E-03
             630               1     113.072E-03     126.813E-03     38.5209E-03     41.8473E-03
             631               1     113.773E-03     107.375E-03     40.2851E-03     38.6651E-03
             632               1     101.643E-03     103.275E-03     37.6180E-03     38.3972E-03
             633               1     94.6914E-03     94.6115E-03     36.9456E-03     37.2771E-03
             634               1     87.4919E-03     88.0473E-03     36.5488E-03     36.7884E-03
             635               1     81.0977E-03     81.4735E-03     36.1478E-03     36.7847E-03
             636               1     74.0832E-03     75.2185E-03     35.5908E-03     35.8821E-03
             637               1     67.5590E-03     68.0100E-03     34.3021E-03     34.9680E-03
             638               1     55.7927E-03     57.0928E-03     29.5531E-03     30.9164E-03
             639               1     77.5785E-03     80.2258E-03     41.7458E-03     40.4490E-03
             640               1     79.3603E-03     75.3960E-03     43.1595E-03     42.5822E-03
             641               1     69.9111E-03     72.2701E-03     40.3179E-03     41.2093E-03
             642               1     66.0547E-03     66.2162E-03     38.1087E-03     37.8638E-03
             643               1     5.64346E-15     2.82574E-15     737.356E-18     788.157E-18
             644               1     3.87083E-15     1.84780E-15    -733.893E-18    -791.621E-18
             645               1     3.14192E-15     2.21468E-15     1.79684E-15     1.25419E-15
             646               1     4.49420E-15     4.79696E-15    -730.429E-18    -795.084E-18
             647               1     2.73324E-15     2.71563E-15    -761.602E-18    -763.911E-18
             648               1     2.11243E-15     2.72126E-15    -776.611E-18    -748.902E-18
             649               1     3.25201E-15     3.47472E-15    -1.65713E-15    -1.39389E-15
             650               1     4.10744E-15     4.53621E-15     918.623E-18     606.891E-18
             651               1     3.14668E-15     3.70631E-15    -1.55091E-15    -1.50011E-15
             652               1     1.34670E-15     1.86873E-15    -584.954E-18    -940.559E-18
             653               1     3.61026E-15     3.27527E-15     1.29114E-15     1.75989E-15
             654               1     5.81559E-15     3.79939E-15     1.93076E-15     1.12026E-15
             655               1     3.50227E-15     3.79744E-15     1.15259E-15     1.89844E-15
             656               1     4.93045E-15     5.25163E-15     1.86380E-15     1.18723E-15
             657               1     329.075E-18     512.333E-18    -106.220E-18     106.220E-18
             658               1     4.35708E-15     3.62070E-15    -51.9553E-18     51.9553E-18
             659               1     4.19784E-15     3.79490E-15    -2.40834E-15    -2.16820E-15
             660               1     2.66736E-15     2.81474E-15    -1.46548E-15    -1.58555E-15
             661               1     3.10214E-15     2.03021E-15     582.645E-18     942.868E-18
             662               1     4.92152E-15     4.63729E-15     1.55091E-15     1.50011E-15
             663               1     4.61723E-15     4.27068E-15     767.375E-18     758.138E-18
             664               1     1.98366E-15     3.14429E-15     313.632E-18     1.21188E-15
             665               1     3.25995E-15     3.53853E-15     1.53821E-15     1.51281E-15
             666               1     2.59104E-15     2.69499E-15     1.49549E-15     1.55553E-15
             667               1     4.87283E-15     3.12914E-15     2.80320E-15     1.77333E-15
             668               1     155.433E-18     155.433E-18    -36.9460E-18     36.9460E-18
             669               1     4.13856E-15     4.32904E-15    -572.254E-18    -953.260E-18
             670               1     782.310E-18     560.321E-18    -244.767E-18     244.767E-18
             671               1     4.68497E-15     4.66233E-15     820.485E-18     705.028E-18
             672               1     385.499E-18     385.499E-18    -205.512E-18     205.512E-18
             673               1     4.15871E-15     4.32197E-15     860.894E-18     664.619E-18
             674               1     2.02860E-15     1.98041E-15    -15.0093E-18     15.0093E-18
             675               1     3.12538E-15     3.53992E-15    -1.51050E-15    -1.54052E-15
             676               1     2.65595E-15     2.21097E-15     810.094E-18     715.420E-18
             677               1     4.69920E-15     5.00814E-15    -1.21378E-15    -1.83725E-15
             678               1     559.885E-18     540.764E-18     125.847E-18    -125.847E-18
             679               1     1.92825E-15     2.09106E-15     9.23651E-18    -9.23651E-18
             680               1     4.35811E-15     4.60826E-15     2.14510E-15     2.43144E-15
             681               1     3.52681E-15     3.67786E-15    -1.39043E-15    -1.66060E-15
             682               1     3.24941E-15     2.54963E-15    -1.74719E-15    -1.30384E-15
             683               1     4.36328E-15     4.66543E-15    -2.00656E-15    -2.56998E-15
             684               1     3.27092E-15     2.81782E-15    -1.66060E-15    -1.39043E-15
             685               1     2.07604E-15     2.76932E-15     567.635E-18     957.878E-18
             686               1     3.15119E-15     3.69117E-15    -1.54630E-15    -1.50473E-15
             687               1     3.73496E-15     4.85425E-15    -235.531E-18     235.531E-18
             688               1     2.29139E-15     2.74676E-15    -744.284E-18    -781.230E-18
             689               1     2.61775E-15     3.17485E-15    -1.39967E-15    -1.65136E-15
             690               1     5.01195E-15     3.96629E-15    -2.40257E-15    -2.17397E-15
             691               1     5.84874E-15     5.68699E-15    -2.90902E-15    -3.19304E-15
             692               1     1.50979E-15     3.53660E-15     558.399E-18     967.114E-18
             693               1     1.55584E-15     2.71635E-15     76.2012E-18    -76.2012E-18
             694               1     1.02960E-15     1.13189E-15    -180.112E-18     180.112E-18
             695               1     2.35377E-15     2.49856E-15     750.056E-18     775.457E-18
             696               1     4.02112E-15     4.22379E-15     11.5456E-18    -11.5456E-18
             697               1     5.16000E-15     4.69521E-15    -1.88343E-15    -1.16760E-15
             698               1     4.49008E-15     3.99965E-15    -507.598E-18    -1.01792E-15
             699               1     3.19588E-15     3.78941E-15    -1.48857E-15    -1.56246E-15
             700               1     45.1594E-03     43.9426E-03    -16.0937E-03    -17.3435E-03
             701               1     43.4410E-03     43.3883E-03    -24.7627E-03    -24.8616E-03
             702               1     45.4414E-03     45.7863E-03    -26.1632E-03    -26.3245E-03
             703               1     52.7546E-03     52.8784E-03    -30.2099E-03    -30.1883E-03
             704               1     55.0205E-03     55.2711E-03    -31.4603E-03    -31.5027E-03
             705               1     59.0306E-03     59.1694E-03    -33.8067E-03    -33.7946E-03
             706               1     59.8199E-03     59.9694E-03    -34.3500E-03    -34.3588E-03
             707               1     61.8072E-03     61.9058E-03    -35.5775E-03    -35.5753E-03
             708               1     61.8856E-03     61.9499E-03    -35.6905E-03    -35.6893E-03
             709               1     62.8339E-03     62.8676E-03    -36.2718E-03    -36.2731E-03
             710               1     62.6486E-03     62.6363E-03    -36.1660E-03    -36.1627E-03
             711               1     63.0788E-03     63.0356E-03    -36.3820E-03    -36.3815E-03
             712               1     62.7019E-03     62.6223E-03    -36.0955E-03    -36.0959E-03
             713               1     62.7698E-03     62.6261E-03    -36.0358E-03    -36.0204E-03
             714               1     61.9873E-03     61.8711E-03    -35.4554E-03    -35.4769E-03
             715               1     61.5570E-03     61.2433E-03    -35.0613E-03    -34.9921E-03
             716               1     59.8449E-03     59.7358E-03    -33.9337E-03    -34.0012E-03
             717               1     58.5470E-03     57.8879E-03    -33.0800E-03    -32.8594E-03
             718               1     54.9205E-03     54.7914E-03    -31.0172E-03    -31.1233E-03
             719               1     26.0247E-03     27.4229E-03    -12.1480E-03    -12.4137E-03
             720               1     43.4224E-03     44.2359E-03    -24.8329E-03    -25.3999E-03
             721               1     51.0569E-03     51.2738E-03    -29.0105E-03    -29.0874E-03
             722               1     54.3601E-03     54.7301E-03    -30.8019E-03    -30.9325E-03
             723               1     58.6702E-03     58.8010E-03    -33.2538E-03    -33.2518E-03
             724               1     59.3007E-03     59.4799E-03    -33.7988E-03    -33.8270E-03
             725               1     61.2512E-03     61.3566E-03    -35.0559E-03    -35.0581E-03
             726               1     61.1282E-03     61.1996E-03    -35.1407E-03    -35.1374E-03
             727               1     62.0027E-03     62.0671E-03    -35.7296E-03    -35.7370E-03
             728               1     61.7828E-03     61.7851E-03    -35.6598E-03    -35.6480E-03
             729               1     62.2220E-03     62.2346E-03    -35.9222E-03    -35.9306E-03
             730               1     62.0111E-03     61.9591E-03    -35.7671E-03    -35.7544E-03
             731               1     62.2610E-03     62.1976E-03    -35.8405E-03    -35.8371E-03
             732               1     61.9479E-03     61.8756E-03    -35.5464E-03    -35.5507E-03
             733               1     62.0646E-03     61.8418E-03    -35.4591E-03    -35.3986E-03
             734               1     61.2944E-03     61.3018E-03    -34.8384E-03    -34.9120E-03
             735               1     61.0891E-03     60.5171E-03    -34.5088E-03    -34.2790E-03
             736               1     59.1490E-03     59.3159E-03    -33.2565E-03    -33.4272E-03
             737               1     57.8499E-03     56.7324E-03    -32.4123E-03    -31.8563E-03
             738               1     19.4830E-03     18.4856E-03    -11.2176E-03    -10.6516E-03
             739               1     38.6414E-03     38.2819E-03    -22.1391E-03    -21.9792E-03
             740               1     51.7082E-03     52.1471E-03    -29.2649E-03    -29.4972E-03
             741               1     58.0628E-03     58.0843E-03    -32.6160E-03    -32.6069E-03
             742               1     59.7762E-03     59.9857E-03    -33.8089E-03    -33.8796E-03
             743               1     61.8314E-03     61.8985E-03    -35.1149E-03    -35.1208E-03
             744               1     61.4052E-03     61.4739E-03    -35.1269E-03    -35.1329E-03
             745               1     61.9377E-03     61.9968E-03    -35.5565E-03    -35.5673E-03
             746               1     61.4711E-03     61.4764E-03    -35.4183E-03    -35.4059E-03
             747               1     61.6664E-03     61.7036E-03    -35.5841E-03    -35.5977E-03
             748               1     61.4354E-03     61.4024E-03    -35.4682E-03    -35.4504E-03
             749               1     61.6244E-03     61.6282E-03    -35.5497E-03    -35.5610E-03
             750               1     61.5618E-03     61.5089E-03    -35.4386E-03    -35.4235E-03
             751               1     61.8440E-03     61.7691E-03    -35.4832E-03    -35.4689E-03
             752               1     61.7405E-03     61.7395E-03    -35.2701E-03    -35.2913E-03
             753               1     62.0822E-03     61.8061E-03    -35.2473E-03    -35.1440E-03
             754               1     61.3350E-03     61.6061E-03    -34.6204E-03    -34.7827E-03
             755               1     60.9466E-03     60.4074E-03    -34.1419E-03    -33.8879E-03
             756               1     58.2721E-03     58.9727E-03    -32.5692E-03    -32.9071E-03
             757               1     21.8974E-03     21.3220E-03    -10.4757E-03    -10.2028E-03
             758               1     39.4987E-03     39.1049E-03    -21.2908E-03    -21.0605E-03
             759               1     52.2857E-03     51.8964E-03    -28.9706E-03    -28.8231E-03
             760               1     58.6326E-03     58.7537E-03    -32.8894E-03    -32.9493E-03
             761               1     62.1523E-03     62.1273E-03    -35.0326E-03    -35.0385E-03
             762               1     62.0995E-03     62.1242E-03    -35.3593E-03    -35.3662E-03
             763               1     62.3700E-03     62.3940E-03    -35.6357E-03    -35.6525E-03
             764               1     61.6915E-03     61.6745E-03    -35.4461E-03    -35.4338E-03
             765               1     61.4703E-03     61.5008E-03    -35.4005E-03    -35.4179E-03
             766               1     61.0995E-03     61.0690E-03    -35.2602E-03    -35.2422E-03
             767               1     61.0170E-03     61.0508E-03    -35.2278E-03    -35.2473E-03
             768               1     60.9931E-03     60.9541E-03    -35.1868E-03    -35.1641E-03
             769               1     61.1550E-03     61.1846E-03    -35.2129E-03    -35.2324E-03
             770               1     61.3744E-03     61.3451E-03    -35.2296E-03    -35.2067E-03
             771               1     61.7840E-03     61.7704E-03    -35.2985E-03    -35.3031E-03
             772               1     61.9333E-03     62.0235E-03    -35.2127E-03    -35.2346E-03
             773               1     62.2771E-03     62.1715E-03    -35.1227E-03    -35.0999E-03
             774               1     61.1448E-03     61.7711E-03    -34.2525E-03    -34.5370E-03
             775               1     58.9227E-03     59.2616E-03    -32.6843E-03    -32.8719E-03
             776               1     31.5854E-03     30.7663E-03    -10.2599E-03    -9.89195E-03
             777               1     44.2625E-03     43.4963E-03    -21.8595E-03    -21.5519E-03
             778               1     53.5659E-03     53.3619E-03    -28.8246E-03    -28.7321E-03
             779               1     60.6836E-03     60.4412E-03    -33.6907E-03    -33.6567E-03
             780               1     61.8823E-03     61.7815E-03    -35.0328E-03    -35.0056E-03
             781               1     62.3795E-03     62.3292E-03    -35.4560E-03    -35.4743E-03
             782               1     61.9101E-03     61.8345E-03    -35.4613E-03    -35.4409E-03
             783               1     61.3147E-03     61.3092E-03    -35.2081E-03    -35.2281E-03
             784               1     60.8962E-03     60.8452E-03    -35.0903E-03    -35.0730E-03
             785               1     60.4540E-03     60.4787E-03    -34.8817E-03    -34.9028E-03
             786               1     60.3818E-03     60.3493E-03    -34.8612E-03    -34.8409E-03
             787               1     60.2748E-03     60.3387E-03    -34.7786E-03    -34.8077E-03
             788               1     60.5457E-03     60.5224E-03    -34.8714E-03    -34.8395E-03
             789               1     60.7576E-03     60.8740E-03    -34.8882E-03    -34.9372E-03
             790               1     61.2840E-03     61.2725E-03    -35.0617E-03    -35.0090E-03
             791               1     61.6921E-03     61.8739E-03    -35.0793E-03    -35.1715E-03
             792               1     61.9749E-03     62.0887E-03    -35.0546E-03    -35.0242E-03
             793               1     61.9254E-03     62.1979E-03    -34.6080E-03    -34.7967E-03
             794               1     59.5834E-03     60.4288E-03    -32.7557E-03    -33.1959E-03
             795               1     43.2619E-03     42.6607E-03    -11.1949E-03    -10.6576E-03
             796               1     50.5884E-03     50.2305E-03    -22.2731E-03    -22.1361E-03
             797               1     59.6136E-03     59.1884E-03    -31.2228E-03    -31.2335E-03
             798               1     60.1819E-03     59.7937E-03    -33.4924E-03    -33.3546E-03
             799               1     61.0743E-03     60.9152E-03    -34.3669E-03    -34.3904E-03
             800               1     61.3395E-03     61.1394E-03    -34.9715E-03    -34.9171E-03
             801               1     60.5723E-03     60.5073E-03    -34.6449E-03    -34.6685E-03
             802               1     60.4558E-03     60.3513E-03    -34.7536E-03    -34.7306E-03
             803               1     59.7259E-03     59.7133E-03    -34.4013E-03    -34.4220E-03
             804               1     59.7096E-03     59.6625E-03    -34.4570E-03    -34.4405E-03
             805               1     59.3178E-03     59.3655E-03    -34.2471E-03    -34.2726E-03
             806               1     59.5540E-03     59.5441E-03    -34.3645E-03    -34.3405E-03
             807               1     59.4911E-03     59.6283E-03    -34.2736E-03    -34.3225E-03
             808               1     60.0232E-03     60.0195E-03    -34.4906E-03    -34.4366E-03
             809               1     60.1833E-03     60.4685E-03    -34.4400E-03    -34.5539E-03
             810               1     60.9559E-03     60.8929E-03    -34.7380E-03    -34.6014E-03
             811               1     61.1021E-03     61.6012E-03    -34.5239E-03    -34.7660E-03
             812               1     61.5204E-03     61.3387E-03    -34.4962E-03    -34.2274E-03
             813               1     61.6743E-03     61.9158E-03    -33.7479E-03    -33.9388E-03
             814               1     60.1548E-03     60.0597E-03    -11.7724E-03    -11.9210E-03
             815               1     65.3274E-03     64.6162E-03    -28.4250E-03    -28.5793E-03
             816               1     59.4020E-03     58.7140E-03    -31.4439E-03    -31.2308E-03
             817               1     58.6313E-03     58.3133E-03    -32.0600E-03    -32.1114E-03
             818               1     59.5389E-03     59.1491E-03    -33.5586E-03    -33.4561E-03
             819               1     58.6745E-03     58.5080E-03    -33.3092E-03    -33.3344E-03
             820               1     59.3136E-03     59.1199E-03    -33.9549E-03    -33.9212E-03
             821               1     58.4953E-03     58.4156E-03    -33.5894E-03    -33.6078E-03
             822               1     58.7951E-03     58.7069E-03    -33.8730E-03    -33.8592E-03
             823               1     58.2186E-03     58.2168E-03    -33.5892E-03    -33.6065E-03
             824               1     58.4999E-03     58.4858E-03    -33.7748E-03    -33.7614E-03
             825               1     58.2103E-03     58.3041E-03    -33.5937E-03    -33.6222E-03
             826               1     58.6440E-03     58.6812E-03    -33.7935E-03    -33.7655E-03
             827               1     58.5644E-03     58.8021E-03    -33.6589E-03    -33.7298E-03
             828               1     59.2277E-03     59.2546E-03    -33.9252E-03    -33.8417E-03
             829               1     59.1593E-03     59.6339E-03    -33.6920E-03    -33.8689E-03
             830               1     60.0936E-03     59.9249E-03    -34.0349E-03    -33.7650E-03
             831               1     59.9164E-03     60.6219E-03    -33.4542E-03    -33.7556E-03
             832               1     61.1827E-03     60.4131E-03    -33.7415E-03    -32.9750E-03
             833               1     87.5904E-03     86.4619E-03    -21.3596E-03    -21.9754E-03
             834               1     64.1942E-03     63.1486E-03    -29.7781E-03    -29.5070E-03
             835               1     55.8997E-03     55.3529E-03    -28.0883E-03    -28.2230E-03
             836               1     57.1141E-03     56.4817E-03    -31.1503E-03    -31.0291E-03
             837               1     55.6098E-03     55.2858E-03    -30.9933E-03    -31.0344E-03
             838               1     57.3117E-03     56.9793E-03    -32.5005E-03    -32.4608E-03
             839               1     56.5751E-03     56.3873E-03    -32.2969E-03    -32.3130E-03
             840               1     57.4672E-03     57.3024E-03    -32.9920E-03    -32.9800E-03
             841               1     56.8432E-03     56.7633E-03    -32.7272E-03    -32.7363E-03
             842               1     57.3136E-03     57.2638E-03    -33.0650E-03    -33.0590E-03
             843               1     56.8830E-03     56.9093E-03    -32.8406E-03    -32.8499E-03
             844               1     57.2837E-03     57.3319E-03    -33.0614E-03    -33.0530E-03
             845               1     57.0583E-03     57.2046E-03    -32.8847E-03    -32.9051E-03
             846               1     57.5409E-03     57.6669E-03    -33.0812E-03    -33.0581E-03
             847               1     57.3767E-03     57.6804E-03    -32.8555E-03    -32.9131E-03
             848               1     57.9853E-03     58.1274E-03    -33.0409E-03    -32.9596E-03
             849               1     57.6176E-03     58.1479E-03    -32.5393E-03    -32.6795E-03
             850               1     58.6312E-03     58.6296E-03    -32.7905E-03    -32.4941E-03
             851               1     57.9708E-03     58.8668E-03    -31.5647E-03    -31.8142E-03
             852               1     20.8237E-03     26.7303E-03    -11.0530E-03    -13.2771E-03
             853               1     41.6354E-03     44.0307E-03    -19.4009E-03    -20.0257E-03
             854               1     50.6119E-03     51.8392E-03    -23.8576E-03    -24.0856E-03
             855               1     57.8939E-03     58.6652E-03    -28.5445E-03    -28.6785E-03
             856               1     61.5356E-03     62.0229E-03    -31.5055E-03    -31.5652E-03
             857               1     65.2482E-03     65.5901E-03    -34.7486E-03    -34.7833E-03
             858               1     66.5011E-03     66.7328E-03    -36.4680E-03    -36.4803E-03
             859               1     68.5371E-03     68.7066E-03    -38.5039E-03    -38.5147E-03
             860               1     68.8342E-03     68.9187E-03    -39.3002E-03    -39.2929E-03
             861               1     70.0492E-03     70.0986E-03    -40.3592E-03    -40.3624E-03
             862               1     70.1109E-03     70.0709E-03    -40.4684E-03    -40.4520E-03
             863               1     70.9574E-03     70.8797E-03    -40.7409E-03    -40.7352E-03
             864               1     70.9985E-03     70.8256E-03    -40.2469E-03    -40.2254E-03
             865               1     71.5713E-03     71.3247E-03    -39.7939E-03    -39.7676E-03
             866               1     71.4320E-03     71.0894E-03    -38.6361E-03    -38.6097E-03
             867               1     71.4492E-03     70.9527E-03    -37.3676E-03    -37.3030E-03
             868               1     70.6544E-03     70.0310E-03    -35.3911E-03    -35.3454E-03
             869               1     69.4086E-03     68.5346E-03    -33.0977E-03    -32.9864E-03
             870               1     66.9629E-03     65.8717E-03    -30.0771E-03    -29.9949E-03
             871               1     33.3095E-03     31.1118E-03    -12.8628E-03    -13.4498E-03
             872               1     48.6761E-03     50.4926E-03    -20.7886E-03    -21.9974E-03
             873               1     57.5826E-03     58.7492E-03    -25.6150E-03    -26.1732E-03
             874               1     61.7563E-03     62.4889E-03    -28.8297E-03    -29.1097E-03
             875               1     65.0507E-03     65.5627E-03    -32.1869E-03    -32.3623E-03
             876               1     65.7870E-03     66.1093E-03    -34.0403E-03    -34.1155E-03
             877               1     67.2062E-03     67.4398E-03    -36.2429E-03    -36.3020E-03
             878               1     66.8706E-03     66.9764E-03    -37.1804E-03    -37.1795E-03
             879               1     67.6153E-03     67.7200E-03    -38.4207E-03    -38.4439E-03
             880               1     67.3203E-03     67.2913E-03    -38.7373E-03    -38.7031E-03
             881               1     67.9982E-03     68.0017E-03    -39.2523E-03    -39.2570E-03
             882               1     68.1188E-03     67.9853E-03    -39.0851E-03    -39.0324E-03
             883               1     68.9892E-03     68.8596E-03    -39.0129E-03    -38.9867E-03
             884               1     69.4642E-03     69.2419E-03    -38.3456E-03    -38.2827E-03
             885               1     70.4488E-03     70.1201E-03    -37.6844E-03    -37.5923E-03
             886               1     70.9169E-03     70.6127E-03    -36.3846E-03    -36.3175E-03
             887               1     71.5009E-03     70.9644E-03    -34.9953E-03    -34.8053E-03
             888               1     71.2588E-03     70.9011E-03    -32.8872E-03    -32.8202E-03
             889               1     70.2451E-03     69.7652E-03    -30.5140E-03    -30.2766E-03
             890               1     40.3565E-03     39.7308E-03    -11.6148E-03    -11.0425E-03
             891               1     54.0093E-03     52.6375E-03    -21.1332E-03    -21.1137E-03
             892               1     62.0248E-03     62.4927E-03    -26.1731E-03    -26.7500E-03
             893               1     66.5193E-03     66.8245E-03    -30.2593E-03    -30.5107E-03
             894               1     67.4875E-03     67.8130E-03    -32.4217E-03    -32.6224E-03
             895               1     68.5513E-03     68.7545E-03    -34.8784E-03    -34.9938E-03
             896               1     67.3840E-03     67.4996E-03    -35.8406E-03    -35.8820E-03
             897               1     67.4043E-03     67.5130E-03    -37.1664E-03    -37.2183E-03
             898               1     66.2792E-03     66.2569E-03    -37.5200E-03    -37.4943E-03
             899               1     66.3481E-03     66.3994E-03    -38.1232E-03    -38.1477E-03
             900               1     66.0508E-03     65.9497E-03    -38.1267E-03    -38.0696E-03
             901               1     66.6997E-03     66.6859E-03    -38.2681E-03    -38.2678E-03
             902               1     67.2987E-03     67.1648E-03    -37.9606E-03    -37.8876E-03
             903               1     68.6383E-03     68.5116E-03    -37.7192E-03    -37.6683E-03
             904               1     69.8024E-03     69.7225E-03    -36.9771E-03    -36.9194E-03
             905               1     71.4992E-03     71.2391E-03    -36.2674E-03    -36.1238E-03
             906               1     72.5516E-03     72.6743E-03    -34.8336E-03    -34.8621E-03
             907               1     73.5463E-03     73.4003E-03    -33.3716E-03    -33.1645E-03
             908               1     73.1547E-03     73.8905E-03    -30.8519E-03    -31.1838E-03
             909               1     50.2430E-03     48.8654E-03    -10.6706E-03    -10.7138E-03
             910               1     58.4023E-03     57.7123E-03    -19.6561E-03    -19.5212E-03
             911               1     65.9917E-03     65.0651E-03    -26.8157E-03    -26.7223E-03
             912               1     69.0411E-03     69.0385E-03    -30.3688E-03    -30.6254E-03
             913               1     70.9834E-03     70.8742E-03    -33.7706E-03    -33.8657E-03
             914               1     69.4983E-03     69.5218E-03    -34.9584E-03    -35.0456E-03
             915               1     69.1026E-03     69.1104E-03    -36.4925E-03    -36.5636E-03
             916               1     66.9904E-03     66.9288E-03    -36.7987E-03    -36.7906E-03
             917               1     66.2458E-03     66.2821E-03    -37.3846E-03    -37.4299E-03
             918               1     65.1281E-03     65.0266E-03    -37.4047E-03    -37.3561E-03
             919               1     65.1041E-03     65.1567E-03    -37.5823E-03    -37.6119E-03
             920               1     65.3375E-03     65.2438E-03    -37.4689E-03    -37.3984E-03
             921               1     66.4233E-03     66.4705E-03    -37.4323E-03    -37.4400E-03
             922               1     67.7874E-03     67.7907E-03    -37.1200E-03    -37.0524E-03
             923               1     69.8838E-03     69.8815E-03    -36.8582E-03    -36.8150E-03
             924               1     71.7067E-03     72.0174E-03    -36.0599E-03    -36.0911E-03
             925               1     74.0411E-03     74.0593E-03    -35.3163E-03    -35.2005E-03
             926               1     75.1765E-03     76.0283E-03    -33.4927E-03    -33.8091E-03
             927               1     75.8347E-03     76.2783E-03    -31.5671E-03    -31.5714E-03
             928               1     60.3182E-03     58.8031E-03    -9.90804E-03    -9.39399E-03
             929               1     64.8702E-03     63.5647E-03    -19.6004E-03    -19.3405E-03
             930               1     69.1088E-03     68.4775E-03    -25.9043E-03    -25.9001E-03
             931               1     72.8675E-03     72.0291E-03    -31.6733E-03    -31.5593E-03
             932               1     71.8038E-03     71.5637E-03    -33.7346E-03    -33.8126E-03
             933               1     71.7759E-03     71.4901E-03    -35.9856E-03    -36.0189E-03
             934               1     68.8255E-03     68.6340E-03    -36.3340E-03    -36.3279E-03
             935               1     67.4168E-03     67.3410E-03    -36.9232E-03    -36.9741E-03
             936               1     65.3258E-03     65.1662E-03    -36.8768E-03    -36.8353E-03
             937               1     64.4036E-03     64.4424E-03    -36.9616E-03    -37.0111E-03
             938               1     63.9045E-03     63.8063E-03    -36.8901E-03    -36.8299E-03
             939               1     64.2761E-03     64.4161E-03    -36.8668E-03    -36.9179E-03
             940               1     65.3685E-03     65.3837E-03    -36.8041E-03    -36.7326E-03
             941               1     67.1914E-03     67.4037E-03    -36.7490E-03    -36.7961E-03
             942               1     69.3646E-03     69.6478E-03    -36.5092E-03    -36.4791E-03
             943               1     72.3026E-03     72.5111E-03    -36.2917E-03    -36.3022E-03
             944               1     74.4675E-03     75.3384E-03    -35.2815E-03    -35.5016E-03
             945               1     77.1801E-03     77.4501E-03    -34.3117E-03    -34.2549E-03
             946               1     77.9369E-03     79.0787E-03    -31.5356E-03    -32.1043E-03
             947               1     69.7440E-03     68.8653E-03    -9.54902E-03    -9.18341E-03
             948               1     72.1743E-03     70.9249E-03    -18.7597E-03    -18.5297E-03
             949               1     75.1344E-03     73.8383E-03    -27.4467E-03    -27.1777E-03
             950               1     74.0540E-03     73.4100E-03    -31.2502E-03    -31.1989E-03
             951               1     74.8672E-03     74.0971E-03    -35.0948E-03    -35.0194E-03
             952               1     71.0454E-03     70.5963E-03    -35.7423E-03    -35.6822E-03
             953               1     69.2677E-03     68.9627E-03    -36.4799E-03    -36.5071E-03
             954               1     66.2624E-03     65.9584E-03    -36.4013E-03    -36.3454E-03
             955               1     64.4521E-03     64.3864E-03    -36.3365E-03    -36.3897E-03
             956               1     63.0812E-03     62.9200E-03    -36.2273E-03    -36.1736E-03
             957               1     62.5025E-03     62.6334E-03    -36.0831E-03    -36.1541E-03
             958               1     62.9652E-03     62.9572E-03    -36.1032E-03    -36.0400E-03
             959               1     64.0412E-03     64.3691E-03    -36.0513E-03    -36.1518E-03
             960               1     66.0959E-03     66.2953E-03    -36.1534E-03    -36.0815E-03
             961               1     68.7607E-03     69.2225E-03    -36.1580E-03    -36.2877E-03
             962               1     71.6447E-03     72.2395E-03    -36.0113E-03    -36.0093E-03
             963               1     75.4855E-03     75.8449E-03    -35.8021E-03    -35.8891E-03
             964               1     77.7808E-03     79.0423E-03    -34.2898E-03    -34.6846E-03
             965               1     80.8512E-03     81.1735E-03    -32.7354E-03    -32.5918E-03
             966               1     82.2458E-03     80.4102E-03    -9.03565E-03    -8.74863E-03
             967               1     81.3414E-03     80.0321E-03    -20.8702E-03    -20.4437E-03
             968               1     78.9135E-03     77.9314E-03    -27.1917E-03    -27.0755E-03
             969               1     79.5732E-03     78.3229E-03    -33.6429E-03    -33.4598E-03
             970               1     73.6410E-03     72.8447E-03    -34.7619E-03    -34.5756E-03
             971               1     71.4062E-03     70.7764E-03    -35.7467E-03    -35.7219E-03
             972               1     67.4832E-03     66.9406E-03    -35.7643E-03    -35.6572E-03
             973               1     64.8543E-03     64.5950E-03    -35.5361E-03    -35.5743E-03
             974               1     62.6788E-03     62.3809E-03    -35.4116E-03    -35.3501E-03
             975               1     61.1161E-03     61.1366E-03    -35.0824E-03    -35.1508E-03
             976               1     60.7933E-03     60.7233E-03    -35.0969E-03    -35.0458E-03
             977               1     60.9093E-03     61.2187E-03    -34.9277E-03    -35.0370E-03
             978               1     62.4297E-03     62.5756E-03    -35.1428E-03    -35.0749E-03
             979               1     64.3157E-03     64.9075E-03    -35.1466E-03    -35.3230E-03
             980               1     67.3063E-03     67.6885E-03    -35.4832E-03    -35.3804E-03
             981               1     70.8360E-03     71.5505E-03    -35.5470E-03    -35.7837E-03
             982               1     74.4462E-03     75.1961E-03    -35.5370E-03    -35.4547E-03
             983               1     79.6622E-03     79.8945E-03    -35.3223E-03    -35.3983E-03
             984               1     82.4205E-03     83.7458E-03    -32.9764E-03    -33.5318E-03
             985               1     93.7005E-03     93.2455E-03    -10.4807E-03    -9.95477E-03
             986               1     90.8407E-03     89.5028E-03    -21.1443E-03    -21.1157E-03
             987               1     89.3654E-03     87.7368E-03    -32.2903E-03    -32.0386E-03
             988               1     77.9604E-03     76.8107E-03    -33.7077E-03    -33.3398E-03
             989               1     74.0948E-03     73.1668E-03    -34.5284E-03    -34.4752E-03
             990               1     68.8937E-03     68.0424E-03    -34.8001E-03    -34.6018E-03
             991               1     65.2493E-03     64.7387E-03    -34.3244E-03    -34.3419E-03
             992               1     62.4178E-03     61.9058E-03    -34.3069E-03    -34.2186E-03
             993               1     59.9095E-03     59.7353E-03    -33.7772E-03    -33.8295E-03
             994               1     58.8522E-03     58.6571E-03    -33.8032E-03    -33.7566E-03
             995               1     57.9837E-03     58.1579E-03    -33.4761E-03    -33.5646E-03
             996               1     58.7577E-03     58.8476E-03    -33.6850E-03    -33.6379E-03
             997               1     59.7021E-03     60.2497E-03    -33.5827E-03    -33.7380E-03
             998               1     62.2296E-03     62.5444E-03    -34.0302E-03    -33.9387E-03
             999               1     64.8805E-03     65.7631E-03    -34.0830E-03    -34.3483E-03
            1000               1     68.8324E-03     69.2870E-03    -34.7369E-03    -34.5161E-03
            1001               1     73.2803E-03     74.2200E-03    -34.7955E-03    -35.1461E-03
            1002               1     78.0947E-03     78.6555E-03    -35.2202E-03    -34.7823E-03
            1003               1     85.8508E-03     85.7204E-03    -35.1045E-03    -35.0640E-03
            1004               1     114.313E-03     111.939E-03    -10.6927E-03    -10.8447E-03
            1005               1     109.561E-03     107.772E-03    -31.8949E-03    -31.5564E-03
            1006               1     86.1521E-03     84.8239E-03    -33.5195E-03    -32.9528E-03
            1007               1     78.0219E-03     76.9186E-03    -32.7034E-03    -32.6700E-03
            1008               1     70.9468E-03     69.8262E-03    -33.4539E-03    -33.1736E-03
            1009               1     65.5722E-03     64.7951E-03    -32.4669E-03    -32.4776E-03
            1010               1     62.1827E-03     61.4146E-03    -32.7533E-03    -32.6384E-03
            1011               1     58.6833E-03     58.2441E-03    -32.0297E-03    -32.0623E-03
            1012               1     57.0447E-03     56.6556E-03    -32.1693E-03    -32.1227E-03
            1013               1     55.2511E-03     55.1964E-03    -31.7061E-03    -31.7607E-03
            1014               1     55.2646E-03     55.2480E-03    -31.9061E-03    -31.8770E-03
            1015               1     55.2833E-03     55.6482E-03    -31.6869E-03    -31.7823E-03
            1016               1     57.0447E-03     57.3442E-03    -32.0707E-03    -32.0244E-03
            1017               1     58.8030E-03     59.5783E-03    -32.0413E-03    -32.2199E-03
            1018               1     62.2350E-03     62.7167E-03    -32.7056E-03    -32.5740E-03
            1019               1     65.5667E-03     66.6783E-03    -32.7480E-03    -33.0660E-03
            1020               1     70.6414E-03     71.0871E-03    -33.8323E-03    -33.4156E-03
            1021               1     76.0598E-03     77.2524E-03    -33.7625E-03    -34.2027E-03
            1022               1     83.1318E-03     83.2533E-03    -35.3786E-03    -34.2175E-03
            1023               1     146.173E-03     146.525E-03    -27.7108E-03    -27.5493E-03
            1024               1     101.673E-03     100.788E-03    -35.3474E-03    -34.6456E-03
            1025               1     83.1355E-03     82.1966E-03    -29.4679E-03    -29.5815E-03
            1026               1     74.4162E-03     73.2304E-03    -31.4865E-03    -31.2288E-03
            1027               1     66.0916E-03     65.0740E-03    -29.7009E-03    -29.7437E-03
            1028               1     62.2096E-03     61.2060E-03    -30.5816E-03    -30.4871E-03
            1029               1     57.4894E-03     56.7215E-03    -29.7160E-03    -29.7375E-03
            1030               1     55.3784E-03     54.7383E-03    -30.1114E-03    -30.0777E-03
            1031               1     52.6849E-03     52.3159E-03    -29.5755E-03    -29.5962E-03
            1032               1     52.0005E-03     51.7972E-03    -29.8262E-03    -29.8117E-03
            1033               1     51.1389E-03     51.2304E-03    -29.5248E-03    -29.5549E-03
            1034               1     52.0615E-03     52.2929E-03    -29.8305E-03    -29.8165E-03
            1035               1     53.0144E-03     53.5420E-03    -29.7339E-03    -29.7898E-03
            1036               1     55.5928E-03     56.1615E-03    -30.2126E-03    -30.1774E-03
            1037               1     58.1481E-03     59.0110E-03    -30.2431E-03    -30.3565E-03
            1038               1     62.3547E-03     63.0867E-03    -31.0233E-03    -30.8992E-03
            1039               1     66.3536E-03     67.4580E-03    -30.9995E-03    -31.2292E-03
            1040               1     72.6968E-03     73.4426E-03    -32.4794E-03    -32.0292E-03
            1041               1     78.8107E-03     80.3380E-03    -31.9722E-03    -32.3910E-03
            1042               1     64.3576E-03     74.2564E-03    -4.97587E-03    -8.30942E-03
            1043               1     68.6038E-03     72.9051E-03    -13.1394E-03    -14.3881E-03
            1044               1     75.3522E-03     77.1465E-03    -22.1578E-03    -22.4162E-03
            1045               1     76.3496E-03     77.5967E-03    -26.8892E-03    -27.2439E-03
            1046               1     78.7044E-03     79.1462E-03    -32.6915E-03    -32.7366E-03
            1047               1     77.6688E-03     78.0571E-03    -35.7398E-03    -35.8594E-03
            1048               1     78.6107E-03     78.7150E-03    -39.6221E-03    -39.6269E-03
            1049               1     77.1134E-03     77.2254E-03    -41.3146E-03    -41.3481E-03
            1050               1     77.9414E-03     77.9550E-03    -43.6700E-03    -43.6603E-03
            1051               1     77.0897E-03     77.1025E-03    -44.2461E-03    -44.2450E-03
            1052               1     78.5349E-03     78.4839E-03    -45.3237E-03    -45.2969E-03
            1053               1     78.8541E-03     78.7983E-03    -44.9083E-03    -44.8969E-03
            1054               1     81.1859E-03     80.9888E-03    -44.8558E-03    -44.7927E-03
            1055               1     82.5774E-03     82.4137E-03    -43.4230E-03    -43.4214E-03
            1056               1     85.5932E-03     85.0859E-03    -42.2576E-03    -42.1220E-03
            1057               1     87.4580E-03     87.1012E-03    -39.6292E-03    -39.6681E-03
            1058               1     90.6018E-03     89.5608E-03    -37.2517E-03    -36.9948E-03
            1059               1     91.9252E-03     91.2944E-03    -33.0610E-03    -33.2103E-03
            1060               1     94.4381E-03     92.7933E-03    -29.2990E-03    -28.9218E-03
            1061               1     81.9367E-03     75.7373E-03    -13.9981E-03    -14.8808E-03
            1062               1     85.6475E-03     86.9969E-03    -16.9209E-03    -18.7865E-03
            1063               1     83.7446E-03     85.3315E-03    -22.0014E-03    -23.1878E-03
            1064               1     84.6210E-03     85.2178E-03    -27.7864E-03    -28.1428E-03
            1065               1     81.5353E-03     82.3017E-03    -30.9329E-03    -31.4041E-03
            1066               1     80.5945E-03     80.7246E-03    -35.1511E-03    -35.2334E-03
            1067               1     77.0252E-03     77.2840E-03    -37.0397E-03    -37.2047E-03
            1068               1     76.0710E-03     76.0489E-03    -39.7668E-03    -39.7732E-03
            1069               1     73.4786E-03     73.5105E-03    -40.6405E-03    -40.6710E-03
            1070               1     73.6426E-03     73.5721E-03    -42.1219E-03    -42.0871E-03
            1071               1     73.0128E-03     72.9721E-03    -42.1355E-03    -42.1112E-03
            1072               1     74.9253E-03     74.7652E-03    -42.5962E-03    -42.5007E-03
            1073               1     76.3905E-03     76.3596E-03    -41.7651E-03    -41.7350E-03
            1074               1     80.0441E-03     79.6694E-03    -41.3194E-03    -41.1070E-03
            1075               1     82.9842E-03     83.0255E-03    -39.5107E-03    -39.5302E-03
            1076               1     87.8110E-03     87.1290E-03    -38.1450E-03    -37.7463E-03
            1077               1     91.1945E-03     91.4073E-03    -35.1227E-03    -35.2745E-03
            1078               1     96.3078E-03     95.5303E-03    -32.6835E-03    -32.1458E-03
            1079               1     98.7791E-03     99.4606E-03    -28.2379E-03    -28.6559E-03
            1080               1     85.5945E-03     85.3361E-03    -12.6447E-03    -11.9984E-03
            1081               1     94.1267E-03     91.1695E-03    -20.7726E-03    -20.9424E-03
            1082               1     93.7893E-03     93.4664E-03    -24.2333E-03    -25.0756E-03
            1083               1     90.0718E-03     90.4343E-03    -27.8958E-03    -28.5917E-03
            1084               1     87.7053E-03     87.5932E-03    -32.0406E-03    -32.2948E-03
            1085               1     82.2461E-03     82.5262E-03    -34.0581E-03    -34.3944E-03
            1086               1     79.3473E-03     79.2077E-03    -36.9869E-03    -37.0532E-03
            1087               1     74.4531E-03     74.4944E-03    -37.9777E-03    -38.0851E-03
            1088               1     72.6127E-03     72.4903E-03    -39.6830E-03    -39.6768E-03
            1089               1     70.0760E-03     70.0204E-03    -39.9436E-03    -39.9408E-03
            1090               1     70.5385E-03     70.4300E-03    -40.7101E-03    -40.6444E-03
            1091               1     71.1298E-03     71.1363E-03    -40.3402E-03    -40.2996E-03
            1092               1     74.3650E-03     74.1852E-03    -40.3743E-03    -40.2118E-03
            1093               1     77.6091E-03     77.8360E-03    -39.2940E-03    -39.2808E-03
            1094               1     83.1108E-03     82.7793E-03    -38.6400E-03    -38.3226E-03
            1095               1     87.7981E-03     88.4160E-03    -36.6475E-03    -36.7519E-03
            1096               1     94.4296E-03     94.1222E-03    -35.1560E-03    -34.7228E-03
            1097               1     99.2740E-03     100.399E-03    -32.1417E-03    -32.4508E-03
            1098               1     105.393E-03     106.020E-03    -29.2351E-03    -29.3066E-03
            1099               1     97.9157E-03     94.8323E-03    -11.5244E-03    -11.8690E-03
            1100               1     97.9524E-03     96.8497E-03    -19.6861E-03    -19.5358E-03
            1101               1     99.2833E-03     97.5634E-03    -25.4690E-03    -25.6268E-03
            1102               1     96.4801E-03     95.6287E-03    -29.4520E-03    -29.7870E-03
            1103               1     90.6898E-03     90.4962E-03    -32.0254E-03    -32.3959E-03
            1104               1     86.4986E-03     86.0119E-03    -35.1217E-03    -35.2538E-03
            1105               1     79.6037E-03     79.5156E-03    -36.2103E-03    -36.3845E-03
            1106               1     75.7455E-03     75.4568E-03    -38.0189E-03    -38.0548E-03
            1107               1     70.7863E-03     70.6537E-03    -38.3608E-03    -38.3944E-03
            1108               1     69.0648E-03     68.9333E-03    -39.2312E-03    -39.2136E-03
            1109               1     67.8008E-03     67.7587E-03    -39.1259E-03    -39.0949E-03
            1110               1     69.5229E-03     69.4951E-03    -39.4003E-03    -39.3213E-03
            1111               1     72.1172E-03     72.3610E-03    -38.8663E-03    -38.8306E-03
            1112               1     77.2382E-03     77.2160E-03    -38.6742E-03    -38.4967E-03
            1113               1     82.4202E-03     83.1662E-03    -37.5330E-03    -37.5804E-03
            1114               1     89.7417E-03     89.7410E-03    -36.7671E-03    -36.4860E-03
            1115               1     95.9288E-03     97.2682E-03    -34.7756E-03    -35.0181E-03
            1116               1     103.540E-03     104.044E-03    -32.9765E-03    -32.8595E-03
            1117               1     109.781E-03     110.898E-03    -30.2589E-03    -30.6420E-03
            1118               1     105.138E-03     103.596E-03    -10.6567E-03    -9.99485E-03
            1119               1     106.013E-03     103.550E-03    -18.8781E-03    -18.8825E-03
            1120               1     103.540E-03     102.078E-03    -25.6009E-03    -25.5095E-03
            1121               1     99.8862E-03     98.5983E-03    -29.7574E-03    -29.8549E-03
            1122               1     95.2991E-03     94.2141E-03    -33.5065E-03    -33.6101E-03
            1123               1     87.3823E-03     86.8782E-03    -34.9835E-03    -35.1214E-03
            1124               1     82.1076E-03     81.4759E-03    -36.9495E-03    -37.0076E-03
            1125               1     74.8706E-03     74.5354E-03    -37.3150E-03    -37.3565E-03
            1126               1     70.8783E-03     70.5897E-03    -38.1367E-03    -38.1600E-03
            1127               1     67.1634E-03     66.9836E-03    -38.1174E-03    -38.0984E-03
            1128               1     66.5473E-03     66.5522E-03    -38.4061E-03    -38.4018E-03
            1129               1     67.5142E-03     67.6551E-03    -38.1976E-03    -38.1547E-03
            1130               1     71.1682E-03     71.3856E-03    -38.2117E-03    -38.1701E-03
            1131               1     76.0127E-03     76.6758E-03    -37.7335E-03    -37.7183E-03
            1132               1     83.0882E-03     83.3890E-03    -37.4575E-03    -37.3622E-03
            1133               1     89.9249E-03     91.2730E-03    -36.3941E-03    -36.5245E-03
            1134               1     98.5482E-03     99.0257E-03    -35.4593E-03    -35.3617E-03
            1135               1     105.871E-03     107.461E-03    -33.4319E-03    -33.7875E-03
            1136               1     113.149E-03     114.375E-03    -31.0400E-03    -31.1351E-03
            1137               1     116.545E-03     113.878E-03    -9.23019E-03    -9.12441E-03
            1138               1     111.906E-03     110.178E-03    -18.7301E-03    -18.2398E-03
            1139               1     109.006E-03     107.030E-03    -25.0798E-03    -25.0450E-03
            1140               1     104.402E-03     102.724E-03    -31.1209E-03    -30.9744E-03
            1141               1     96.3422E-03     95.1881E-03    -33.5555E-03    -33.5306E-03
            1142               1     90.3705E-03     89.2266E-03    -36.1293E-03    -36.1346E-03
            1143               1     81.2725E-03     80.5658E-03    -36.6071E-03    -36.5807E-03
            1144               1     75.4411E-03     74.8440E-03    -37.3247E-03    -37.3586E-03
            1145               1     69.2568E-03     68.8324E-03    -37.2877E-03    -37.2547E-03
            1146               1     66.0398E-03     65.9095E-03    -37.4034E-03    -37.4445E-03
            1147               1     64.6573E-03     64.6103E-03    -37.3160E-03    -37.2739E-03
            1148               1     65.9573E-03     66.2631E-03    -37.3007E-03    -37.3527E-03
            1149               1     69.5591E-03     70.0361E-03    -37.2317E-03    -37.1845E-03
            1150               1     75.3407E-03     75.9272E-03    -37.1741E-03    -37.2397E-03
            1151               1     82.1887E-03     83.3248E-03    -36.9302E-03    -36.9258E-03
            1152               1     90.9791E-03     91.6105E-03    -36.6391E-03    -36.6965E-03
            1153               1     99.0418E-03     100.809E-03    -35.6055E-03    -35.8228E-03
            1154               1     108.395E-03     109.193E-03    -34.3661E-03    -34.3396E-03
            1155               1     116.427E-03     117.668E-03    -31.6407E-03    -32.1204E-03
            1156               1     124.555E-03     123.136E-03    -8.90345E-03    -8.31223E-03
            1157               1     121.286E-03     118.838E-03    -17.7304E-03    -17.6259E-03
            1158               1     115.310E-03     113.285E-03    -27.0251E-03    -26.6031E-03
            1159               1     106.491E-03     104.828E-03    -30.9870E-03    -30.8379E-03
            1160               1     100.083E-03     98.3776E-03    -35.2066E-03    -35.0568E-03
            1161               1     89.0171E-03     87.8245E-03    -35.9501E-03    -35.7626E-03
            1162               1     81.8045E-03     80.7942E-03    -36.6139E-03    -36.6127E-03
            1163               1     73.4379E-03     72.6531E-03    -36.5500E-03    -36.4479E-03
            1164               1     67.8544E-03     67.4341E-03    -36.3507E-03    -36.4024E-03
            1165               1     63.9093E-03     63.5858E-03    -36.2535E-03    -36.1980E-03
            1166               1     62.3963E-03     62.5860E-03    -36.0156E-03    -36.1103E-03
            1167               1     63.9387E-03     64.1843E-03    -36.1102E-03    -36.0587E-03
            1168               1     67.5444E-03     68.2745E-03    -36.0208E-03    -36.1808E-03
            1169               1     73.6283E-03     74.4762E-03    -36.2946E-03    -36.2188E-03
            1170               1     81.3589E-03     82.3325E-03    -36.2821E-03    -36.5164E-03
            1171               1     89.8162E-03     91.2916E-03    -36.3980E-03    -36.3360E-03
            1172               1     100.201E-03     100.964E-03    -36.1281E-03    -36.3037E-03
            1173               1     109.232E-03     111.120E-03    -34.7977E-03    -35.1043E-03
            1174               1     119.183E-03     120.179E-03    -32.9990E-03    -32.7655E-03
            1175               1     138.341E-03     135.204E-03    -7.81489E-03    -7.56434E-03
            1176               1     130.144E-03     128.298E-03    -20.5652E-03    -19.9382E-03
            1177               1     120.277E-03     118.265E-03    -26.9039E-03    -26.7736E-03
            1178               1     112.740E-03     110.497E-03    -34.2525E-03    -33.8835E-03
            1179               1     97.9971E-03     96.3961E-03    -35.2158E-03    -34.8232E-03
            1180               1     89.4010E-03     87.9707E-03    -35.8344E-03    -35.7532E-03
            1181               1     78.9407E-03     77.7351E-03    -35.7782E-03    -35.5492E-03
            1182               1     71.3292E-03     70.5297E-03    -35.1354E-03    -35.1664E-03
            1183               1     65.0525E-03     64.3635E-03    -34.9925E-03    -34.8933E-03
            1184               1     60.7416E-03     60.6215E-03    -34.3893E-03    -34.4831E-03
            1185               1     59.7464E-03     59.7073E-03    -34.4868E-03    -34.4361E-03
            1186               1     60.6155E-03     61.2486E-03    -34.1868E-03    -34.3635E-03
            1187               1     65.0902E-03     65.6916E-03    -34.6426E-03    -34.5694E-03
            1188               1     70.9186E-03     72.0985E-03    -34.6226E-03    -34.9286E-03
            1189               1     79.0699E-03     80.1831E-03    -35.4063E-03    -35.2359E-03
            1190               1     88.5092E-03     89.7735E-03    -35.5057E-03    -35.9230E-03
            1191               1     98.3548E-03     99.9417E-03    -36.1114E-03    -35.8523E-03
            1192               1     110.872E-03     111.402E-03    -35.9933E-03    -36.1277E-03
            1193               1     121.202E-03     122.855E-03    -33.8556E-03    -34.3482E-03
            1194               1     148.772E-03     148.274E-03    -9.66140E-03    -9.11287E-03
            1195               1     141.532E-03     138.842E-03    -20.6605E-03    -20.6931E-03
            1196               1     131.676E-03     128.995E-03    -34.1305E-03    -33.5145E-03
            1197               1     109.213E-03     107.385E-03    -34.9563E-03    -34.2903E-03
            1198               1     98.3460E-03     96.6307E-03    -34.9239E-03    -34.7697E-03
            1199               1     85.4120E-03     83.8415E-03    -34.9019E-03    -34.5147E-03
            1200               1     75.8019E-03     74.6341E-03    -33.5882E-03    -33.5882E-03
            1201               1     67.5859E-03     66.4838E-03    -33.4498E-03    -33.2816E-03
            1202               1     60.7524E-03     60.2008E-03    -32.3738E-03    -32.4430E-03
            1203               1     57.2071E-03     56.7938E-03    -32.4295E-03    -32.3662E-03
            1204               1     55.1101E-03     55.4059E-03    -31.8133E-03    -31.9543E-03
            1205               1     57.2830E-03     57.6434E-03    -32.2424E-03    -32.1946E-03
            1206               1     60.7366E-03     61.8410E-03    -32.0494E-03    -32.3149E-03
            1207               1     67.7373E-03     68.6380E-03    -32.9761E-03    -32.8455E-03
            1208               1     75.4192E-03     76.9780E-03    -33.0839E-03    -33.5419E-03
            1209               1     85.2973E-03     86.4803E-03    -34.5545E-03    -34.1792E-03
            1210               1     96.3369E-03     97.7962E-03    -34.7949E-03    -35.3893E-03
            1211               1     107.800E-03     109.203E-03    -36.3147E-03    -35.5594E-03
            1212               1     123.972E-03     123.973E-03    -36.6944E-03    -36.6105E-03
            1213               1     173.946E-03     168.834E-03    -9.47242E-03    -9.49374E-03
            1214               1     162.301E-03     159.702E-03    -36.0812E-03    -35.0724E-03
            1215               1     124.180E-03     122.505E-03    -36.5774E-03    -35.5403E-03
            1216               1     108.775E-03     107.100E-03    -33.7706E-03    -33.6096E-03
            1217               1     92.9961E-03     91.2811E-03    -33.9280E-03    -33.4195E-03
            1218               1     80.9072E-03     79.4677E-03    -31.4893E-03    -31.4778E-03
            1219               1     71.1321E-03     69.6721E-03    -31.4815E-03    -31.2633E-03
            1220               1     62.0385E-03     61.0121E-03    -29.8526E-03    -29.8938E-03
            1221               1     56.2774E-03     55.4106E-03    -29.9171E-03    -29.8376E-03
            1222               1     51.2743E-03     51.0387E-03    -28.9473E-03    -29.0318E-03
            1223               1     50.7386E-03     50.7638E-03    -29.2882E-03    -29.2568E-03
            1224               1     51.4783E-03     52.2397E-03    -28.8564E-03    -29.0173E-03
            1225               1     56.5905E-03     57.3754E-03    -29.6454E-03    -29.5880E-03
            1226               1     62.3960E-03     63.8495E-03    -29.6315E-03    -29.9393E-03
            1227               1     71.3633E-03     72.4662E-03    -31.0611E-03    -30.8533E-03
            1228               1     80.4849E-03     82.2385E-03    -31.3106E-03    -31.8526E-03
            1229               1     91.9406E-03     93.0615E-03    -33.6670E-03    -33.0163E-03
            1230               1     104.483E-03     106.147E-03    -34.0234E-03    -34.7608E-03
            1231               1     118.312E-03     119.330E-03    -37.5305E-03    -35.8434E-03
            1232               1     210.197E-03     212.846E-03    -34.6414E-03    -33.4665E-03
            1233               1     146.376E-03     146.166E-03    -41.8706E-03    -40.6155E-03
            1234               1     119.527E-03     118.608E-03    -31.2956E-03    -31.3612E-03
            1235               1     102.096E-03     100.681E-03    -32.5047E-03    -32.0729E-03
            1236               1     86.5031E-03     84.9410E-03    -28.4533E-03    -28.4942E-03
            1237               1     75.6729E-03     74.0264E-03    -28.8364E-03    -28.6720E-03
            1238               1     64.4281E-03     62.9237E-03    -26.6654E-03    -26.6925E-03
            1239               1     56.9106E-03     55.5770E-03    -26.8461E-03    -26.7858E-03
            1240               1     49.2578E-03     48.3475E-03    -25.5586E-03    -25.5895E-03
            1241               1     45.9081E-03     45.4231E-03    -25.8393E-03    -25.8186E-03
            1242               1     43.5974E-03     43.7820E-03    -25.1665E-03    -25.2166E-03
            1243               1     46.1840E-03     46.7756E-03    -25.7563E-03    -25.7400E-03
            1244               1     49.9627E-03     51.0835E-03    -25.5843E-03    -25.6810E-03
            1245               1     57.4425E-03     58.6356E-03    -26.6596E-03    -26.6063E-03
            1246               1     65.2053E-03     66.6727E-03    -26.8776E-03    -27.0711E-03
            1247               1     75.5585E-03     76.8662E-03    -28.6906E-03    -28.4963E-03
            1248               1     85.8267E-03     87.3172E-03    -29.1227E-03    -29.5024E-03
            1249               1     98.7402E-03     100.060E-03    -32.3361E-03    -31.6779E-03
            1250               1     112.215E-03     114.014E-03    -32.5707E-03    -33.2350E-03
            1251               1     125.849E-03     137.894E-03     1.96716E-03    -2.42157E-03
            1252               1     110.099E-03     115.363E-03    -6.41502E-03    -8.24976E-03
            1253               1     110.504E-03     112.564E-03    -20.0192E-03    -20.3227E-03
            1254               1     104.409E-03     105.780E-03    -25.5749E-03    -26.1137E-03
            1255               1     102.332E-03     102.567E-03    -33.6835E-03    -33.7295E-03
            1256               1     96.1827E-03     96.3974E-03    -37.3555E-03    -37.5415E-03
            1257               1     93.8103E-03     93.6408E-03    -42.6545E-03    -42.6541E-03
            1258               1     88.6259E-03     88.5519E-03    -44.7009E-03    -44.7563E-03
            1259               1     87.6589E-03     87.5055E-03    -47.9088E-03    -47.8897E-03
            1260               1     85.0489E-03     85.0024E-03    -48.5541E-03    -48.5576E-03
            1261               1     86.7246E-03     86.6579E-03    -50.0413E-03    -49.9965E-03
            1262               1     87.5838E-03     87.6183E-03    -49.3907E-03    -49.3805E-03
            1263               1     92.1924E-03     92.0621E-03    -49.3662E-03    -49.2656E-03
            1264               1     96.0828E-03     96.0993E-03    -47.3464E-03    -47.3568E-03
            1265               1     102.913E-03     102.425E-03    -45.8571E-03    -45.6446E-03
            1266               1     108.500E-03     108.346E-03    -42.1893E-03    -42.2828E-03
            1267               1     116.505E-03     115.325E-03    -39.1542E-03    -38.7484E-03
            1268               1     122.176E-03     121.821E-03    -33.2307E-03    -33.5690E-03
            1269               1     130.673E-03     128.834E-03    -28.5333E-03    -27.9123E-03
            1270               1     139.570E-03     130.247E-03    -15.0572E-03    -16.1416E-03
            1271               1     136.011E-03     136.590E-03    -12.4366E-03    -14.9749E-03
            1272               1     121.209E-03     122.693E-03    -18.5900E-03    -20.2968E-03
            1273               1     116.572E-03     116.865E-03    -26.3859E-03    -26.8633E-03
            1274               1     106.360E-03     106.988E-03    -30.2319E-03    -30.9325E-03
            1275               1     100.702E-03     100.501E-03    -36.0082E-03    -36.1124E-03
            1276               1     91.6824E-03     91.7412E-03    -38.3405E-03    -38.5953E-03
            1277               1     87.1802E-03     86.8751E-03    -42.0872E-03    -42.0854E-03
            1278               1     80.9500E-03     80.8364E-03    -43.1503E-03    -43.2065E-03
            1279               1     79.6929E-03     79.4850E-03    -45.2053E-03    -45.1425E-03
            1280               1     78.2421E-03     78.2224E-03    -45.1423E-03    -45.1197E-03
            1281               1     81.5911E-03     81.4400E-03    -45.8120E-03    -45.6564E-03
            1282               1     85.1684E-03     85.3592E-03    -44.6016E-03    -44.5779E-03
            1283               1     92.6416E-03     92.3302E-03    -44.0549E-03    -43.7207E-03
            1284               1     99.5425E-03     99.9813E-03    -41.4883E-03    -41.5609E-03
            1285               1     109.591E-03     108.963E-03    -39.7445E-03    -39.1257E-03
            1286               1     117.740E-03     118.553E-03    -35.4634E-03    -35.8030E-03
            1287               1     129.110E-03     128.413E-03    -32.3699E-03    -31.5338E-03
            1288               1     136.676E-03     138.291E-03    -26.0630E-03    -26.9737E-03
            1289               1     138.645E-03     138.394E-03    -13.3429E-03    -12.6737E-03
            1290               1     143.950E-03     139.434E-03    -20.7989E-03    -21.0007E-03
            1291               1     136.367E-03     135.110E-03    -21.9170E-03    -23.1006E-03
            1292               1     123.615E-03     123.578E-03    -26.2434E-03    -27.2580E-03
            1293               1     115.440E-03     114.782E-03    -31.3658E-03    -31.7156E-03
            1294               1     103.050E-03     103.057E-03    -33.8606E-03    -34.3663E-03
            1295               1     95.1497E-03     94.5899E-03    -37.7823E-03    -37.8642E-03
            1296               1     84.7605E-03     84.5717E-03    -39.0375E-03    -39.2093E-03
            1297               1     79.4884E-03     79.0918E-03    -41.3937E-03    -41.3698E-03
            1298               1     74.0342E-03     73.8834E-03    -41.7023E-03    -41.7136E-03
            1299               1     74.1639E-03     73.9872E-03    -42.7923E-03    -42.6782E-03
            1300               1     75.6886E-03     75.8660E-03    -42.2354E-03    -42.1965E-03
            1301               1     82.1050E-03     82.0143E-03    -42.3226E-03    -42.0601E-03
            1302               1     89.2294E-03     89.9195E-03    -40.7727E-03    -40.7870E-03
            1303               1     100.042E-03     99.8629E-03    -39.9404E-03    -39.4415E-03
            1304               1     109.855E-03     111.203E-03    -37.1373E-03    -37.3540E-03
            1305               1     122.860E-03     122.740E-03    -35.2405E-03    -34.5668E-03
            1306               1     133.307E-03     135.377E-03    -31.1650E-03    -31.7232E-03
            1307               1     146.884E-03     147.708E-03    -27.4893E-03    -27.5972E-03
            1308               1     152.039E-03     147.435E-03    -12.3926E-03    -12.8764E-03
            1309               1     146.542E-03     144.867E-03    -19.4804E-03    -19.4416E-03
            1310               1     142.503E-03     139.744E-03    -25.1332E-03    -25.3584E-03
            1311               1     132.846E-03     131.120E-03    -28.3285E-03    -28.8282E-03
            1312               1     119.421E-03     118.730E-03    -31.2787E-03    -31.8278E-03
            1313               1     109.211E-03     108.093E-03    -34.9549E-03    -35.1370E-03
            1314               1     95.5153E-03     95.0792E-03    -36.3114E-03    -36.5800E-03
            1315               1     86.6112E-03     85.8791E-03    -38.6938E-03    -38.7308E-03
            1316               1     76.5968E-03     76.2270E-03    -39.1492E-03    -39.2138E-03
            1317               1     72.1957E-03     71.8639E-03    -40.3645E-03    -40.3208E-03
            1318               1     69.7082E-03     69.6964E-03    -40.2117E-03    -40.1853E-03
            1319               1     72.9872E-03     73.0350E-03    -40.6205E-03    -40.4817E-03
            1320               1     78.7138E-03     79.3756E-03    -39.8548E-03    -39.8279E-03
            1321               1     88.7711E-03     88.9704E-03    -39.6224E-03    -39.3319E-03
            1322               1     99.2152E-03     100.715E-03    -38.0308E-03    -38.1291E-03
            1323               1     112.932E-03     113.195E-03    -37.0624E-03    -36.6177E-03
            1324               1     125.049E-03     127.336E-03    -34.4630E-03    -34.8229E-03
            1325               1     139.686E-03     140.496E-03    -32.2705E-03    -32.0945E-03
            1326               1     152.610E-03     154.192E-03    -29.4171E-03    -29.7746E-03
            1327               1     157.825E-03     155.708E-03    -11.0671E-03    -10.3887E-03
            1328               1     155.484E-03     151.802E-03    -19.1467E-03    -19.1766E-03
            1329               1     146.796E-03     144.550E-03    -25.2675E-03    -25.2536E-03
            1330               1     136.968E-03     134.844E-03    -29.4696E-03    -29.6248E-03
            1331               1     125.687E-03     123.755E-03    -33.1087E-03    -33.2716E-03
            1332               1     110.422E-03     109.398E-03    -34.7572E-03    -34.9714E-03
            1333               1     99.1069E-03     97.8343E-03    -37.0281E-03    -37.1000E-03
            1334               1     85.3211E-03     84.6007E-03    -37.4941E-03    -37.5692E-03
            1335               1     76.6502E-03     75.9740E-03    -38.5548E-03    -38.5713E-03
            1336               1     69.1591E-03     68.8087E-03    -38.5537E-03    -38.5432E-03
            1337               1     67.5411E-03     67.5235E-03    -38.9655E-03    -38.9381E-03
            1338               1     69.8450E-03     70.2551E-03    -38.6862E-03    -38.6453E-03
            1339               1     77.2587E-03     77.7424E-03    -38.7245E-03    -38.6357E-03
            1340               1     87.0737E-03     88.4310E-03    -38.0702E-03    -38.0692E-03
            1341               1     100.348E-03     100.982E-03    -37.7326E-03    -37.5601E-03
            1342               1     113.269E-03     115.566E-03    -36.3931E-03    -36.5686E-03
            1343               1     128.851E-03     129.677E-03    -35.3028E-03    -35.1412E-03
            1344               1     142.723E-03     145.080E-03    -33.1123E-03    -33.4793E-03
            1345               1     156.568E-03     158.480E-03    -30.5815E-03    -30.7535E-03
            1346               1     170.233E-03     166.317E-03    -9.23019E-03    -9.12441E-03
            1347               1     160.544E-03     158.146E-03    -18.7301E-03    -18.2398E-03
            1348               1     153.068E-03     150.052E-03    -25.0798E-03    -25.0450E-03
            1349               1     141.899E-03     139.348E-03    -31.1209E-03    -30.9744E-03
            1350               1     126.895E-03     125.027E-03    -33.5555E-03    -33.5306E-03
            1351               1     114.358E-03     112.399E-03    -36.1293E-03    -36.1346E-03
            1352               1     97.9365E-03     96.7045E-03    -36.6071E-03    -36.5807E-03
            1353               1     86.2443E-03     85.0641E-03    -37.3247E-03    -37.3586E-03
            1354               1     74.2899E-03     73.4929E-03    -37.2877E-03    -37.2547E-03
            1355               1     67.4608E-03     67.1062E-03    -37.4034E-03    -37.4445E-03
            1356               1     64.6852E-03     64.6680E-03    -37.3159E-03    -37.2739E-03
            1357               1     67.4840E-03     68.0277E-03    -37.3007E-03    -37.3527E-03
            1358               1     74.9927E-03     76.0237E-03    -37.2317E-03    -37.1845E-03
            1359               1     86.2807E-03     87.2848E-03    -37.1741E-03    -37.2397E-03
            1360               1     99.1565E-03     101.185E-03    -36.9302E-03    -36.9258E-03
            1361               1     114.835E-03     115.849E-03    -36.6391E-03    -36.6965E-03
            1362               1     129.414E-03     132.118E-03    -35.6055E-03    -35.8228E-03
            1363               1     145.706E-03     147.006E-03    -34.3661E-03    -34.3396E-03
            1364               1     160.453E-03     162.066E-03    -31.6408E-03    -32.1204E-03
            1365               1     177.360E-03     175.355E-03    -8.49310E-03    -7.91842E-03
            1366               1     171.091E-03     167.436E-03    -17.4618E-03    -17.3318E-03
            1367               1     159.156E-03     156.327E-03    -27.3585E-03    -26.8590E-03
            1368               1     144.089E-03     141.575E-03    -31.2747E-03    -31.0680E-03
            1369               1     131.031E-03     128.423E-03    -35.6045E-03    -35.3954E-03
            1370               1     112.323E-03     110.502E-03    -36.1763E-03    -35.9127E-03
            1371               1     98.7382E-03     97.0008E-03    -36.5354E-03    -36.5203E-03
            1372               1     83.4730E-03     82.1617E-03    -36.3710E-03    -36.2352E-03
            1373               1     72.5217E-03     71.6423E-03    -35.9327E-03    -35.9911E-03
            1374               1     64.4733E-03     63.9007E-03    -35.8173E-03    -35.7533E-03
            1375               1     61.4493E-03     61.7048E-03    -35.4561E-03    -35.5740E-03
            1376               1     64.7171E-03     65.2993E-03    -35.6216E-03    -35.5681E-03
            1377               1     72.3254E-03     73.5255E-03    -35.5080E-03    -35.7152E-03
            1378               1     84.0119E-03     85.6268E-03    -35.9579E-03    -35.8679E-03
            1379               1     98.2455E-03     99.7008E-03    -36.0070E-03    -36.3185E-03
            1380               1     113.143E-03     115.587E-03    -36.3990E-03    -36.2919E-03
            1381               1     130.709E-03     131.853E-03    -36.2846E-03    -36.5242E-03
            1382               1     146.394E-03     149.072E-03    -35.1174E-03    -35.4124E-03
            1383               1     163.008E-03     164.665E-03    -33.4576E-03    -33.1470E-03
            1384               1     192.710E-03     188.072E-03    -6.94671E-03    -6.55688E-03
            1385               1     179.595E-03     177.147E-03    -20.7710E-03    -20.0324E-03
            1386               1     164.542E-03     161.517E-03    -27.2397E-03    -27.0420E-03
            1387               1     150.474E-03     147.281E-03    -35.3760E-03    -34.8422E-03
            1388               1     127.615E-03     125.362E-03    -35.9625E-03    -35.3913E-03
            1389               1     112.590E-03     110.383E-03    -36.0012E-03    -35.8701E-03
            1390               1     94.7040E-03     92.8924E-03    -35.6771E-03    -35.3537E-03
            1391               1     80.9192E-03     79.4936E-03    -34.4605E-03    -34.4904E-03
            1392               1     68.7286E-03     67.5554E-03    -34.2042E-03    -34.0739E-03
            1393               1     60.2170E-03     59.8627E-03    -33.2561E-03    -33.3759E-03
            1394               1     57.8882E-03     57.8871E-03    -33.4010E-03    -33.3458E-03
            1395               1     60.2107E-03     61.2474E-03    -32.9666E-03    -33.2031E-03
            1396               1     69.1403E-03     70.3475E-03    -33.6540E-03    -33.5721E-03
            1397               1     80.6583E-03     82.4254E-03    -33.6743E-03    -34.0934E-03
            1398               1     95.1281E-03     97.0982E-03    -34.9086E-03    -34.6872E-03
            1399               1     111.495E-03     113.233E-03    -35.2105E-03    -35.7912E-03
            1400               1     127.786E-03     130.339E-03    -36.4241E-03    -36.0476E-03
            1401               1     147.717E-03     148.548E-03    -36.6994E-03    -36.8926E-03
            1402               1     164.812E-03     166.968E-03    -34.6974E-03    -35.2156E-03
            1403               1     202.385E-03     201.837E-03    -8.96319E-03    -8.43754E-03
            1404               1     192.671E-03     188.519E-03    -20.6343E-03    -20.6348E-03
            1405               1     176.455E-03     172.794E-03    -36.4468E-03    -35.4895E-03
            1406               1     144.502E-03     142.106E-03    -36.6088E-03    -35.6240E-03
            1407               1     127.408E-03     124.976E-03    -35.5987E-03    -35.3490E-03
            1408               1     106.764E-03     104.604E-03    -35.0994E-03    -34.5429E-03
            1409               1     90.8070E-03     88.9623E-03    -32.7928E-03    -32.7772E-03
            1410               1     75.8443E-03     74.1244E-03    -32.3901E-03    -32.1573E-03
            1411               1     63.2160E-03     62.1410E-03    -30.6631E-03    -30.7500E-03
            1412               1     55.4648E-03     54.7386E-03    -30.6709E-03    -30.5934E-03
            1413               1     51.5200E-03     51.9479E-03    -29.7310E-03    -29.9205E-03
            1414               1     55.8422E-03     56.6099E-03    -30.3472E-03    -30.2977E-03
            1415               1     63.5465E-03     65.2781E-03    -30.1010E-03    -30.4667E-03
            1416               1     76.5208E-03     78.1513E-03    -31.4974E-03    -31.3394E-03
            1417               1     90.6551E-03     92.8007E-03    -31.7835E-03    -32.4230E-03
            1418               1     106.924E-03     108.946E-03    -34.0646E-03    -33.5771E-03
            1419               1     125.015E-03     126.887E-03    -34.7104E-03    -35.5453E-03
            1420               1     142.698E-03     145.038E-03    -37.2913E-03    -36.2869E-03
            1421               1     166.826E-03     166.972E-03    -38.4402E-03    -38.3199E-03
            1422               1     232.473E-03     224.479E-03    -8.41330E-03    -8.23301E-03
            1423               1     215.411E-03     212.105E-03    -40.5655E-03    -38.8841E-03
            1424               1     164.422E-03     162.468E-03    -39.9888E-03    -38.4312E-03
            1425               1     142.992E-03     140.839E-03    -35.1711E-03    -34.8891E-03
            1426               1     119.369E-03     117.195E-03    -34.6290E-03    -33.8912E-03
            1427               1     101.070E-03     99.0192E-03    -30.6323E-03    -30.5988E-03
            1428               1     84.4029E-03     82.3056E-03    -30.1806E-03    -29.8728E-03
            1429               1     68.9580E-03     67.2429E-03    -27.5323E-03    -27.5815E-03
            1430               1     57.2380E-03     55.7567E-03    -27.4074E-03    -27.3022E-03
            1431               1     47.4221E-03     46.8574E-03    -25.8639E-03    -25.9763E-03
            1432               1     45.5532E-03     45.6562E-03    -26.2813E-03    -26.2483E-03
            1433               1     48.0211E-03     49.3204E-03    -25.6406E-03    -25.8616E-03
            1434               1     58.2078E-03     59.6567E-03    -26.8089E-03    -26.7451E-03
            1435               1     69.9427E-03     72.0531E-03    -26.8960E-03    -27.3256E-03
            1436               1     85.2962E-03     87.0967E-03    -29.0834E-03    -28.8226E-03
            1437               1     100.996E-03     103.233E-03    -29.7111E-03    -30.4732E-03
            1438               1     118.589E-03     120.427E-03    -33.3262E-03    -32.4878E-03
            1439               1     138.128E-03     140.119E-03    -34.3370E-03    -35.3728E-03
            1440               1     157.815E-03     159.708E-03    -39.7054E-03    -37.5255E-03
            1441               1     273.170E-03     278.260E-03    -41.5844E-03    -39.3543E-03
            1442               1     191.487E-03     192.017E-03    -48.5950E-03    -46.7539E-03
            1443               1     157.637E-03     156.800E-03    -33.4342E-03    -33.4547E-03
            1444               1     132.838E-03     131.268E-03    -33.8190E-03    -33.2031E-03
            1445               1     111.190E-03     109.160E-03    -27.4613E-03    -27.5013E-03
            1446               1     93.8179E-03     91.6107E-03    -27.2207E-03    -26.9899E-03
            1447               1     76.3028E-03     74.0607E-03    -23.6329E-03    -23.6653E-03
            1448               1     62.2852E-03     60.1726E-03    -23.4598E-03    -23.3776E-03
            1449               1     48.2466E-03     46.5543E-03    -21.3197E-03    -21.3602E-03
            1450               1     40.0354E-03     39.0765E-03    -21.5313E-03    -21.5060E-03
            1451               1     35.4517E-03     35.7870E-03    -20.4488E-03    -20.5170E-03
            1452               1     40.9118E-03     42.1127E-03    -21.2739E-03    -21.2564E-03
            1453               1     49.8778E-03     51.7396E-03    -21.0739E-03    -21.2080E-03
            1454               1     63.7585E-03     65.6604E-03    -22.7363E-03    -22.6708E-03
            1455               1     77.9585E-03     79.9283E-03    -23.2780E-03    -23.5486E-03
            1456               1     94.4690E-03     96.3076E-03    -26.1305E-03    -25.8816E-03
            1457               1     111.070E-03     112.770E-03    -27.2202E-03    -27.7488E-03
            1458               1     129.748E-03     131.540E-03    -32.1664E-03    -31.3192E-03
            1459               1     149.895E-03     151.793E-03    -33.3363E-03    -34.2445E-03
            1460               1     185.078E-03     196.023E-03     10.2356E-03     5.81545E-03
            1461               1     154.537E-03     159.007E-03     314.220E-06    -1.63459E-03
            1462               1     150.037E-03     151.306E-03    -16.5380E-03    -16.8318E-03
            1463               1     138.734E-03     139.460E-03    -25.5083E-03    -25.9839E-03
            1464               1     130.203E-03     129.883E-03    -33.7950E-03    -33.8442E-03
            1465               1     120.391E-03     120.135E-03    -40.3376E-03    -40.4639E-03
            1466               1     110.469E-03     109.922E-03    -44.6156E-03    -44.5881E-03
            1467               1     102.634E-03     102.320E-03    -48.5052E-03    -48.5519E-03
            1468               1     95.5079E-03     95.1435E-03    -50.5070E-03    -50.4545E-03
            1469               1     92.2864E-03     92.2239E-03    -52.3059E-03    -52.3431E-03
            1470               1     91.5125E-03     91.4204E-03    -52.7934E-03    -52.7269E-03
            1471               1     94.9783E-03     95.2182E-03    -52.9852E-03    -53.0237E-03
            1472               1     101.182E-03     101.220E-03    -52.1492E-03    -52.0503E-03
            1473               1     110.192E-03     110.566E-03    -50.8090E-03    -50.8318E-03
            1474               1     120.988E-03     120.847E-03    -48.4547E-03    -48.2958E-03
            1475               1     132.571E-03     132.784E-03    -45.1632E-03    -45.1546E-03
            1476               1     145.493E-03     144.686E-03    -40.9058E-03    -40.6097E-03
            1477               1     156.718E-03     156.697E-03    -34.5270E-03    -34.6864E-03
            1478               1     170.819E-03     169.011E-03    -28.2799E-03    -27.6689E-03
            1479               1     192.618E-03     181.734E-03    -14.0261E-03    -14.8778E-03
            1480               1     189.729E-03     188.636E-03    -6.87231E-03    -9.50293E-03
            1481               1     163.908E-03     164.448E-03    -16.8434E-03    -18.3705E-03
            1482               1     154.218E-03     153.714E-03    -24.5111E-03    -25.0381E-03
            1483               1     137.867E-03     137.595E-03    -31.7297E-03    -32.2304E-03
            1484               1     123.835E-03     123.090E-03    -36.2467E-03    -36.2901E-03
            1485               1     110.383E-03     109.840E-03    -40.5611E-03    -40.7424E-03
            1486               1     97.5697E-03     96.7858E-03    -42.8974E-03    -42.7857E-03
            1487               1     88.3257E-03     88.0302E-03    -45.0127E-03    -45.1259E-03
            1488               1     82.0047E-03     81.5087E-03    -46.0129E-03    -45.8553E-03
            1489               1     80.8716E-03     81.1213E-03    -46.6590E-03    -46.7767E-03
            1490               1     84.5108E-03     84.4389E-03    -46.6336E-03    -46.4155E-03
            1491               1     92.4801E-03     93.1648E-03    -46.0755E-03    -46.1951E-03
            1492               1     103.952E-03     104.139E-03    -44.9841E-03    -44.6554E-03
            1493               1     117.381E-03     118.161E-03    -43.1288E-03    -43.1832E-03
            1494               1     132.707E-03     132.986E-03    -40.5707E-03    -40.1271E-03
            1495               1     147.735E-03     148.733E-03    -36.8783E-03    -36.8491E-03
            1496               1     165.127E-03     165.288E-03    -32.2678E-03    -31.7852E-03
            1497               1     178.183E-03     180.689E-03    -25.7662E-03    -26.2627E-03
            1498               1     192.157E-03     190.644E-03    -11.3310E-03    -10.6211E-03
            1499               1     195.400E-03     189.991E-03    -21.4688E-03    -21.1946E-03
            1500               1     184.881E-03     182.311E-03    -19.4751E-03    -20.8155E-03
            1501               1     163.942E-03     162.750E-03    -28.2344E-03    -28.8684E-03
            1502               1     146.916E-03     145.600E-03    -31.0193E-03    -31.3257E-03
            1503               1     128.878E-03     127.889E-03    -35.8316E-03    -36.1392E-03
            1504               1     110.800E-03     109.639E-03    -37.5372E-03    -37.4547E-03
            1505               1     95.7583E-03     95.0357E-03    -39.5710E-03    -39.7510E-03
            1506               1     82.5663E-03     81.6086E-03    -40.5031E-03    -40.3251E-03
            1507               1     74.4194E-03     74.3284E-03    -41.2199E-03    -41.3835E-03
            1508               1     72.0754E-03     71.7266E-03    -41.5736E-03    -41.3392E-03
            1509               1     76.0164E-03     76.7954E-03    -41.4759E-03    -41.6634E-03
            1510               1     85.9240E-03     86.2623E-03    -41.2639E-03    -40.9286E-03
            1511               1     99.3274E-03     100.571E-03    -40.4463E-03    -40.6307E-03
            1512               1     115.655E-03     116.519E-03    -39.4205E-03    -38.9785E-03
            1513               1     133.258E-03     134.716E-03    -37.7937E-03    -37.8566E-03
            1514               1     152.248E-03     153.653E-03    -35.1030E-03    -34.8662E-03
            1515               1     170.285E-03     172.653E-03    -32.3704E-03    -32.1907E-03
            1516               1     191.115E-03     192.630E-03    -26.6753E-03    -27.7491E-03
            1517               1     204.982E-03     200.194E-03    -11.5545E-03    -11.7568E-03
            1518               1     201.435E-03     198.169E-03    -18.4474E-03    -18.6038E-03
            1519               1     192.199E-03     188.296E-03    -29.7003E-03    -29.2778E-03
            1520               1     173.128E-03     170.613E-03    -28.8832E-03    -29.4119E-03
            1521               1     153.552E-03     151.535E-03    -35.0313E-03    -35.2033E-03
            1522               1     130.806E-03     129.098E-03    -34.8753E-03    -34.8259E-03
            1523               1     111.980E-03     110.682E-03    -36.5073E-03    -36.7105E-03
            1524               1     93.0453E-03     91.6034E-03    -36.6363E-03    -36.4623E-03
            1525               1     78.2672E-03     77.5643E-03    -36.9516E-03    -37.1424E-03
            1526               1     67.8357E-03     66.9666E-03    -37.1524E-03    -36.9391E-03
            1527               1     64.2535E-03     64.7111E-03    -37.0607E-03    -37.2794E-03
            1528               1     69.1449E-03     69.3790E-03    -37.2280E-03    -36.9456E-03
            1529               1     79.9279E-03     81.4188E-03    -36.9203E-03    -37.1964E-03
            1530               1     95.6676E-03     96.7648E-03    -36.9369E-03    -36.5543E-03
            1531               1     113.720E-03     115.621E-03    -36.4822E-03    -36.7737E-03
            1532               1     133.371E-03     135.276E-03    -35.8796E-03    -35.5503E-03
            1533               1     154.678E-03     156.689E-03    -35.4630E-03    -35.4785E-03
            1534               1     175.699E-03     178.440E-03    -32.4748E-03    -33.2384E-03
            1535               1     197.089E-03     199.106E-03    -32.3274E-03    -31.2521E-03
            1536               1     218.442E-03     213.281E-03    -9.18104E-03    -8.33790E-03
            1537               1     212.050E-03     207.992E-03    -24.7030E-03    -24.0087E-03
            1538               1     196.038E-03     192.750E-03    -28.0949E-03    -28.2774E-03
            1539               1     180.735E-03     176.979E-03    -37.6969E-03    -37.1941E-03
            1540               1     152.348E-03     149.972E-03    -35.0340E-03    -34.8408E-03
            1541               1     132.263E-03     130.180E-03    -35.9400E-03    -36.0147E-03
            1542               1     109.137E-03     107.172E-03    -34.5897E-03    -34.3829E-03
            1543               1     90.2637E-03     88.8655E-03    -34.0179E-03    -34.1995E-03
            1544               1     73.1640E-03     71.6509E-03    -33.5392E-03    -33.3485E-03
            1545               1     61.1439E-03     60.7897E-03    -32.9894E-03    -33.2058E-03
            1546               1     57.2739E-03     57.0154E-03    -33.0283E-03    -32.8089E-03
            1547               1     61.8287E-03     63.1855E-03    -32.7375E-03    -33.0261E-03
            1548               1     74.6513E-03     75.7796E-03    -33.1640E-03    -32.8755E-03
            1549               1     91.2338E-03     93.4346E-03    -33.1809E-03    -33.5896E-03
            1550               1     110.704E-03     112.668E-03    -33.8780E-03    -33.5384E-03
            1551               1     132.135E-03     134.521E-03    -34.4124E-03    -34.8557E-03
            1552               1     153.337E-03     156.328E-03    -34.7144E-03    -34.6456E-03
            1553               1     178.681E-03     180.063E-03    -36.3857E-03    -36.0953E-03
            1554               1     199.262E-03     202.928E-03    -33.1126E-03    -34.8157E-03
            1555               1     230.946E-03     229.359E-03    -11.0814E-03    -10.6880E-03
            1556               1     223.400E-03     218.472E-03    -22.9434E-03    -22.9206E-03
            1557               1     209.431E-03     204.600E-03    -41.0126E-03    -39.9152E-03
            1558               1     172.143E-03     169.423E-03    -37.8740E-03    -37.0931E-03
            1559               1     152.676E-03     149.786E-03    -37.1565E-03    -36.9444E-03
            1560               1     126.266E-03     123.808E-03    -34.2548E-03    -33.8986E-03
            1561               1     105.637E-03     103.556E-03    -32.2347E-03    -32.3467E-03
            1562               1     84.7022E-03     82.5669E-03    -30.7391E-03    -30.5469E-03
            1563               1     67.0116E-03     65.6474E-03    -29.3165E-03    -29.5028E-03
            1564               1     54.0892E-03     52.9130E-03    -28.8212E-03    -28.6547E-03
            1565               1     48.8076E-03     49.3837E-03    -28.1416E-03    -28.3837E-03
            1566               1     54.9434E-03     55.8539E-03    -28.4384E-03    -28.2381E-03
            1567               1     68.0118E-03     70.2513E-03    -28.4483E-03    -28.8174E-03
            1568               1     86.1690E-03     88.1518E-03    -29.5275E-03    -29.2748E-03
            1569               1     106.243E-03     108.941E-03    -30.2896E-03    -30.8666E-03
            1570               1     127.410E-03     130.060E-03    -32.1916E-03    -31.8888E-03
            1571               1     151.214E-03     153.631E-03    -34.0412E-03    -34.6824E-03
            1572               1     172.539E-03     176.228E-03    -36.2676E-03    -35.9246E-03
            1573               1     202.519E-03     202.534E-03    -39.6417E-03    -39.0969E-03
            1574               1     263.545E-03     253.838E-03    -9.89428E-03    -9.45690E-03
            1575               1     249.401E-03     244.921E-03    -46.3855E-03    -44.4762E-03
            1576               1     192.368E-03     189.855E-03    -43.6111E-03    -41.9476E-03
            1577               1     170.563E-03     167.582E-03    -38.3508E-03    -38.0057E-03
            1578               1     141.904E-03     139.227E-03    -35.0828E-03    -34.4775E-03
            1579               1     120.509E-03     117.855E-03    -30.8613E-03    -30.8713E-03
            1580               1     98.0541E-03     95.3968E-03    -28.4497E-03    -28.2368E-03
            1581               1     77.8157E-03     75.5277E-03    -25.8328E-03    -25.9595E-03
            1582               1     59.4922E-03     57.3171E-03    -24.5899E-03    -24.4703E-03
            1583               1     44.9436E-03     43.9708E-03    -23.2361E-03    -23.3992E-03
            1584               1     39.9677E-03     40.0327E-03    -23.0381E-03    -22.9153E-03
            1585               1     45.9978E-03     47.9042E-03    -22.7272E-03    -22.9611E-03
            1586               1     61.1727E-03     63.2780E-03    -23.5585E-03    -23.4074E-03
            1587               1     79.5034E-03     82.2508E-03    -24.2212E-03    -24.6251E-03
            1588               1     99.9657E-03     102.546E-03    -26.2556E-03    -26.0572E-03
            1589               1     121.581E-03     124.364E-03    -27.9596E-03    -28.6538E-03
            1590               1     143.173E-03     146.072E-03    -31.6654E-03    -31.1949E-03
            1591               1     168.142E-03     170.420E-03    -34.4429E-03    -35.3975E-03
            1592               1     190.034E-03     193.369E-03    -40.3877E-03    -38.5686E-03
            1593               1     310.183E-03     315.304E-03    -47.6890E-03    -45.1344E-03
            1594               1     220.121E-03     220.092E-03    -54.8550E-03    -52.7340E-03
            1595               1     184.850E-03     183.131E-03    -37.7136E-03    -37.7156E-03
            1596               1     156.576E-03     154.219E-03    -35.8519E-03    -35.2335E-03
            1597               1     132.928E-03     129.952E-03    -28.6586E-03    -28.6929E-03
            1598               1     110.879E-03     107.862E-03    -25.9695E-03    -25.7915E-03
            1599               1     89.7152E-03     86.5913E-03    -22.0314E-03    -22.0837E-03
            1600               1     69.5668E-03     66.5804E-03    -20.0643E-03    -20.0034E-03
            1601               1     50.3621E-03     47.7429E-03    -17.9107E-03    -17.9711E-03
            1602               1     34.9430E-03     33.1676E-03    -17.0308E-03    -16.9890E-03
            1603               1     28.1734E-03     28.7506E-03    -16.2132E-03    -16.2856E-03
            1604               1     36.7182E-03     38.9166E-03    -16.4582E-03    -16.4108E-03
            1605               1     52.9454E-03     55.7179E-03    -16.8310E-03    -16.9507E-03
            1606               1     72.2654E-03     75.2497E-03    -18.3081E-03    -18.2467E-03
            1607               1     92.6522E-03     95.3575E-03    -19.8562E-03    -20.0943E-03
            1608               1     113.483E-03     116.362E-03    -22.9390E-03    -22.7971E-03
            1609               1     135.242E-03     137.385E-03    -25.5672E-03    -26.0710E-03
            1610               1     157.064E-03     159.701E-03    -31.3435E-03    -30.6671E-03
            1611               1     181.568E-03     183.466E-03    -34.3021E-03    -35.2686E-03
            1612               1     4.84769E-15     3.22389E-15     207.821E-18    -207.821E-18
            1613               1     628.066E-18     636.185E-18    -148.939E-18     148.939E-18
            1614               1     2.41329E-15     2.15071E-15     50.8008E-18    -50.8008E-18
            1615               1     3.75456E-15     3.03088E-15    -1.75758E-15    -1.29345E-15
            1616               1     2.93491E-15     2.46524E-15    -1.66406E-15    -1.38697E-15
            1617               1     3.73303E-15     3.35953E-15    -1.34425E-15    -1.70678E-15
            1618               1     52.6741E-03     51.2109E-03    -29.8975E-03    -29.2443E-03
            1619               1     43.7717E-03     44.4533E-03    -25.2495E-03    -25.6125E-03
            1620               1     53.3591E-03     53.7346E-03    -30.2216E-03    -30.4036E-03
            1621               1     44.0091E-03     44.8910E-03    -25.2285E-03    -25.6544E-03
            1622               1     52.9468E-03     53.6195E-03    -29.5832E-03    -29.9174E-03
            1623               1     44.2481E-03     44.0239E-03    -24.4792E-03    -24.5307E-03
            1624               1     53.8496E-03     54.3239E-03    -29.3609E-03    -29.6992E-03
            1625               1     46.2666E-03     46.5870E-03    -24.7060E-03    -24.6606E-03
            1626               1     55.8195E-03     56.1609E-03    -29.9178E-03    -29.9610E-03
            1627               1     49.4446E-03     48.7878E-03    -24.8775E-03    -24.8192E-03
            1628               1     58.4004E-03     59.1334E-03    -30.4790E-03    -31.0572E-03
            1629               1     52.7818E-03     53.8071E-03    -25.6258E-03    -25.4421E-03
            1630               1     62.8475E-03     62.7114E-03    -32.7066E-03    -32.6305E-03
            1631               1     60.1330E-03     58.8301E-03    -27.4243E-03    -27.8200E-03
            1632               1     61.4633E-03     61.1392E-03    -32.7110E-03    -31.6311E-03
            1633               1     63.9528E-03     66.2809E-03    -28.8324E-03    -28.4570E-03
            1634               1     62.9514E-03     61.5120E-03    -26.4774E-03    -26.3169E-03
            1635               1     53.6897E-03     54.4560E-03    -21.0531E-03    -22.1392E-03
            1636               1     67.1240E-03     67.8216E-03    -27.1419E-03    -27.5293E-03
            1637               1     60.8243E-03     60.7693E-03    -22.4136E-03    -22.9112E-03
            1638               1     71.0545E-03     71.5448E-03    -27.7920E-03    -28.0118E-03
            1639               1     66.3729E-03     66.9579E-03    -22.4499E-03    -22.8045E-03
            1640               1     74.6145E-03     75.3974E-03    -27.7697E-03    -28.2552E-03
            1641               1     72.2290E-03     72.5244E-03    -23.2561E-03    -23.3910E-03
            1642               1     78.2511E-03     78.8002E-03    -28.5943E-03    -28.5119E-03
            1643               1     77.3708E-03     77.2268E-03    -23.3777E-03    -23.4951E-03
            1644               1     81.8243E-03     82.3540E-03    -28.6613E-03    -29.1453E-03
            1645               1     81.9581E-03     83.1313E-03    -24.0778E-03    -23.9265E-03
            1646               1     85.8625E-03     86.5701E-03    -30.2964E-03    -29.8897E-03
            1647               1     88.5307E-03     87.1209E-03    -24.8509E-03    -24.7948E-03
            1648               1     90.2843E-03     90.7753E-03    -31.4689E-03    -32.1959E-03
            1649               1     92.7338E-03     95.8892E-03    -26.6656E-03    -26.2285E-03
            1650               1     95.4823E-03     95.1618E-03    -35.4646E-03    -35.0525E-03
            1651               1     103.364E-03     99.0794E-03    -29.8753E-03    -30.2822E-03
            1652               1     89.9820E-03     91.1093E-03    -35.8659E-03    -34.2467E-03
            1653               1     106.273E-03     110.843E-03    -32.8802E-03    -31.5845E-03
            1654               1     93.2798E-03     92.6994E-03    -22.5836E-03    -23.0684E-03
            1655               1     93.3719E-03     96.0390E-03    -16.3347E-03    -18.2936E-03
            1656               1     102.927E-03     103.857E-03    -23.8173E-03    -24.3327E-03
            1657               1     104.801E-03     101.897E-03    -19.2855E-03    -19.8449E-03
            1658               1     110.093E-03     110.230E-03    -25.9205E-03    -26.2754E-03
            1659               1     111.059E-03     113.674E-03    -20.5734E-03    -21.1022E-03
            1660               1     114.517E-03     116.249E-03    -26.5960E-03    -26.9845E-03
            1661               1     119.794E-03     118.760E-03    -22.1804E-03    -22.6045E-03
            1662               1     120.078E-03     120.326E-03    -27.5381E-03    -27.9270E-03
            1663               1     123.840E-03     125.724E-03    -22.3958E-03    -22.4563E-03
            1664               1     123.173E-03     124.801E-03    -28.2259E-03    -28.0967E-03
            1665               1     131.540E-03     130.639E-03    -23.2448E-03    -23.4035E-03
            1666               1     128.404E-03     128.570E-03    -28.9177E-03    -29.3363E-03
            1667               1     134.719E-03     137.347E-03    -24.1769E-03    -23.9502E-03
            1668               1     131.691E-03     133.503E-03    -31.0842E-03    -30.4172E-03
            1669               1     143.022E-03     140.554E-03    -25.3725E-03    -25.2387E-03
            1670               1     136.896E-03     137.031E-03    -33.0411E-03    -33.8369E-03
            1671               1     145.700E-03     151.071E-03    -28.2668E-03    -27.5486E-03
            1672               1     140.877E-03     140.734E-03    -38.7619E-03    -38.0685E-03
            1673               1     158.019E-03     150.763E-03    -32.9091E-03    -33.2948E-03
            1674               1     130.333E-03     132.582E-03    -39.7172E-03    -37.4638E-03
            1675               1     158.510E-03     165.457E-03    -37.6603E-03    -35.3617E-03
            1676               1     134.317E-03     134.645E-03    -18.5737E-03    -19.6992E-03
            1677               1     144.939E-03     149.913E-03    -11.3436E-03    -14.2990E-03
            1678               1     149.532E-03     150.708E-03    -20.3196E-03    -21.1180E-03
            1679               1     159.520E-03     153.716E-03    -16.0970E-03    -16.6970E-03
            1680               1     158.800E-03     158.664E-03    -24.2540E-03    -24.5056E-03
            1681               1     165.152E-03     169.803E-03    -18.7729E-03    -19.5934E-03
            1682               1     163.600E-03     166.355E-03    -25.5456E-03    -26.1811E-03
            1683               1     175.836E-03     173.848E-03    -21.4334E-03    -21.9880E-03
            1684               1     170.313E-03     170.441E-03    -27.2152E-03    -27.5972E-03
            1685               1     179.191E-03     182.248E-03    -21.9790E-03    -22.1067E-03
            1686               1     173.024E-03     175.594E-03    -28.2259E-03    -28.0967E-03
            1687               1     188.201E-03     186.775E-03    -23.2448E-03    -23.4035E-03
            1688               1     179.007E-03     179.061E-03    -29.2405E-03    -29.6661E-03
            1689               1     190.365E-03     194.173E-03    -24.5938E-03    -24.2999E-03
            1690               1     181.583E-03     184.391E-03    -32.1346E-03    -31.2206E-03
            1691               1     199.701E-03     196.266E-03    -26.1196E-03    -25.8553E-03
            1692               1     186.912E-03     186.823E-03    -34.7077E-03    -35.6067E-03
            1693               1     200.830E-03     208.250E-03    -30.0674E-03    -29.0573E-03
            1694               1     189.586E-03     189.617E-03    -42.2596E-03    -41.2833E-03
            1695               1     214.431E-03     204.338E-03    -36.0977E-03    -36.4427E-03
            1696               1     173.795E-03     176.974E-03    -43.7272E-03    -40.8329E-03
            1697               1     212.354E-03     221.638E-03    -42.6514E-03    -39.3564E-03
            1698               1     178.921E-03     180.090E-03    -15.8301E-03    -17.3102E-03
            1699               1     198.441E-03     205.535E-03    -7.33517E-03    -11.3900E-03
            1700               1     199.387E-03     200.599E-03    -17.7971E-03    -19.2694E-03
            1701               1     215.211E-03     207.402E-03    -14.2499E-03    -14.8263E-03
            1702               1     208.997E-03     209.706E-03    -25.1043E-03    -24.2185E-03
            1703               1     221.122E-03     226.168E-03    -18.7461E-03    -19.9740E-03
            1704               1     214.988E-03     217.664E-03    -26.5761E-03    -28.3904E-03
            1705               1     230.338E-03     230.664E-03    -23.8488E-03    -23.8679E-03
            1706               1     220.445E-03     222.733E-03    -32.7026E-03    -31.2699E-03
            1707               1     237.490E-03     235.615E-03    -25.7346E-03    -25.6119E-03
            1708               1     224.409E-03     225.423E-03    -34.9579E-03    -36.7561E-03
            1709               1     240.839E-03     248.355E-03    -31.3589E-03    -29.9988E-03
            1710               1     227.781E-03     227.461E-03    -45.1312E-03    -43.7647E-03
            1711               1     254.532E-03     242.733E-03    -38.4029E-03    -38.6480E-03
            1712               1     207.479E-03     211.429E-03    -46.7784E-03    -43.5651E-03
            1713               1     251.581E-03     262.359E-03    -46.7468E-03    -42.6795E-03
            1714               1     7.31125E-15     7.08815E-15    -1.15275E-15    -754.139E-18
            1715               1     7.40669E-15     8.03223E-15     3.62309E-15     3.62309E-15
            1716               1     11.6004E-15     10.5858E-15     3.05767E-15     2.47231E-15
            1717               1     9.18073E-15     9.46869E-15     4.02247E-15     3.60510E-15
            1718               1     10.7512E-15     9.81272E-15     3.15426E-15     3.32917E-15
            1719               1     5.16110E-15     5.15023E-15     1.55889E-15     1.87351E-15
            1720               1     14.4820E-15     12.9780E-15     6.08148E-15     5.35987E-15
            1721               1     3.63623E-15     3.28033E-15     541.863E-18     220.894E-18
            1722               1     11.6580E-15     10.6246E-15    -1.17667E-15    -348.846E-18
            1723               1     12.7842E-15     12.3679E-15    -1.54630E-15    -1.50473E-15
            1724               1     4.32466E-15     3.33663E-15    -1.42160E-15    -1.62942E-15
            1725               1     5.45419E-15     7.48032E-15     2.11393E-15     2.46261E-15
            1726               1     8.34963E-15     8.11638E-15    -1.02138E-15    -504.134E-18
            1727               1     6.97906E-15     6.42871E-15    -3.23691E-15    -2.86514E-15
            1728               1     11.6697E-15     11.0045E-15     3.32466E-15     2.77739E-15
            1729               1     5.04659E-15     4.70408E-15     1.61441E-15     1.43661E-15
            1730               1     4.58934E-15     5.03659E-15    -1.19069E-15    -1.86034E-15
            1731               1     10.9255E-15     10.5266E-15     2.27672E-15     2.29982E-15
            2140               1     5.82727E-15     5.41472E-15    -2.31944E-15    -2.25710E-15
            2141               1     3.41800E-15     3.42038E-15    -1.39043E-15    -1.66060E-15
            2142               1     4.40362E-15     3.91583E-15     338.287E-18    -338.287E-18
            2143               1     2.30872E-15     2.77221E-15     470.652E-18     1.05486E-15
            2144               1     4.27833E-15     4.19307E-15     756.984E-18     768.529E-18
            2145               1     3.12362E-15     2.59303E-15    -919.777E-18    -605.736E-18
            2146               1     149.880E-03     183.046E-03     19.3022E-03     15.9934E-03
            2147               1     200.818E-03     151.340E-03     22.4139E-03     21.5192E-03
            2148               1     151.961E-03     192.163E-03     20.5462E-03     20.6595E-03
            2149               1     179.356E-03     142.950E-03     18.9862E-03     19.4931E-03
            2150               1     137.139E-03     154.555E-03     21.8097E-03     24.4819E-03
            2151               1     139.547E-03     148.287E-03     12.8422E-03     12.6915E-03
            2152               1     148.233E-03     139.993E-03     27.1390E-03     26.8420E-03
            2153               1     111.149E-03     133.042E-03     25.7566E-03     23.2167E-03
            2154               1     146.887E-03     112.882E-03     27.7936E-03     27.8686E-03
            2155               1     111.600E-03     137.236E-03     26.6960E-03     26.9994E-03
            2156               1     131.215E-03     105.703E-03     26.5866E-03     25.4909E-03
            2157               1     102.457E-03     114.072E-03     27.3672E-03     29.4252E-03
            2158               1     100.167E-03     106.607E-03     19.6553E-03     18.9219E-03
            2159               1     112.136E-03     106.898E-03     32.9820E-03     33.1478E-03
            2160               1     79.2643E-03     87.3128E-03     31.1144E-03     27.6761E-03
            2161               1     97.3939E-03     80.3653E-03     34.5577E-03     33.3689E-03
            2162               1     76.3215E-03     89.5997E-03     30.8609E-03     31.2641E-03
            2163               1     83.6870E-03     72.6082E-03     28.5498E-03     29.0458E-03
            2164               1     74.6808E-03     81.8639E-03     31.4475E-03     33.7509E-03
            2165               1     66.3273E-03     68.4812E-03     24.0673E-03     23.5797E-03
            2166               1     84.2610E-03     80.7107E-03     37.9227E-03     37.6873E-03
            2167               1     61.6168E-03     48.6085E-03     34.5231E-03     27.0927E-03
            2168               1     66.3630E-03     59.5452E-03     36.7774E-03     32.5808E-03
            2169               1     60.2065E-03     62.3439E-03     33.3572E-03     34.0850E-03
            2170               1     55.1643E-03     60.5354E-03     30.5571E-03     33.6793E-03
            2171               1     55.9673E-03     66.1024E-03     31.3418E-03     37.7211E-03
            2172               1     48.2153E-03     47.3283E-03     27.1835E-03     26.5354E-03
            2173               1     68.6498E-03     68.2321E-03     39.0548E-03     39.0262E-03
            2174               1     47.2204E-03     55.7246E-03     23.3265E-03     21.6321E-03
            2175               1     61.7777E-03     55.6630E-03     28.9900E-03     28.5463E-03
            2176               1     58.0780E-03     63.6114E-03     31.7693E-03     32.3668E-03
            2177               1     70.7990E-03     67.3918E-03     37.6263E-03     36.9555E-03
            2178               1     76.0713E-03     81.1484E-03     42.2955E-03     42.8547E-03
            2179               1     55.5893E-03     56.1840E-03     29.3037E-03     28.8350E-03
            2180               1     73.1717E-03     72.7718E-03     39.5738E-03     39.1788E-03
            2181               1     63.2484E-03     78.6998E-03     8.83898E-03     14.0139E-03
            2182               1     75.9265E-03     68.3268E-03     17.7731E-03     21.2668E-03
            2183               1     70.6563E-03     76.1996E-03     27.5209E-03     26.2434E-03
            2184               1     82.8715E-03     74.9119E-03     37.4051E-03     34.1133E-03
            2185               1     86.2094E-03     82.2119E-03     45.0871E-03     40.6913E-03
            2186               1     71.2129E-03     75.0777E-03     25.9045E-03     25.3763E-03
            2187               1     72.1549E-03     71.8396E-03     31.2736E-03     31.6369E-03
            2188               1     86.4754E-03     82.2705E-03     32.3690E-03     31.7326E-03
            2189               1     93.3198E-03     89.8930E-03     26.8402E-03     26.9869E-03
            2190               1     82.4346E-03     90.6728E-03     25.9657E-03     26.3473E-03
            2191               1     81.5007E-03     90.4426E-03     22.9434E-03     22.9289E-03
            2192               1     97.4914E-03     95.2607E-03     45.6767E-03     45.9127E-03
            2193               1     105.614E-03     103.559E-03     39.8752E-03     40.4599E-03
            2194               1     100.293E-03     101.503E-03     43.5716E-03     42.1767E-03
            2195               1     97.6273E-03     100.801E-03     33.3264E-03     34.4316E-03
            2196               1     94.9285E-03     98.4168E-03     33.7968E-03     32.6585E-03
            2197               1     96.4019E-03     100.210E-03     29.6306E-03     28.8733E-03
            2198               1     91.0115E-03     93.1496E-03     24.6991E-03     24.8501E-03
            2199               1     91.7401E-03     96.6048E-03     21.6378E-03     21.0766E-03
            2200               1     83.1747E-03     89.6511E-03     14.1096E-03     15.6476E-03
            2201               1     87.2207E-03     91.4171E-03     16.1935E-03     16.0911E-03
            2202               1     2.89337E-15     1.61377E-15    -237.840E-18     237.840E-18
            2203               1     3.36339E-15     1.94819E-15    -491.434E-18    -1.03408E-15
            2204               1     2.83384E-15     2.74673E-15    -1.55207E-15    -1.49896E-15
            2205               1     2.54249E-15     2.31432E-15    -632.291E-18    -893.222E-18
            2206               1     5.71355E-15     6.37470E-15    -245.922E-18     245.922E-18
            2207               1     7.60807E-15     8.99570E-15     1.03754E-15     487.971E-18
            2208               1     3.00531E-15     3.71127E-15    -1.54399E-15    -1.50704E-15
            2209               1     2.52522E-15     2.81107E-15    -1.44123E-15    -1.60980E-15
            2210               1     2.00523E-15     2.80697E-15    -752.366E-18    -773.148E-18
            2211               1     3.95379E-15     4.24510E-15    -2.17281E-15    -2.40373E-15
            2212               1     827.155E-18     894.717E-18     108.529E-18    -108.529E-18
            2213               1     2.03164E-15     2.84637E-15     847.040E-18     678.473E-18
            2214               1     2.79221E-15     2.70040E-15     1.56939E-15     1.48164E-15
            2215               1     5.05165E-15     4.73279E-15     1.56592E-15     1.48510E-15
            2216               1     4.34099E-15     4.08778E-15     787.002E-18     738.511E-18
            2217               1     3.78671E-15     3.03882E-15    -1.80145E-15    -1.24957E-15
            2218               1     3.27618E-15     4.80565E-15     285.177E-18    -285.177E-18
            2219               1     3.73478E-15     5.95618E-15    -1.53821E-15    -1.51281E-15
            2220               1     10.7657E-15     11.1134E-15    -6.14015E-15    -6.06395E-15
            2221               1     2.22187E-15     2.86821E-15    -526.071E-18    -999.442E-18
            2222               1     1.52932E-15     1.12760E-15    -879.367E-18    -646.146E-18
            2223               1     4.04539E-15     4.48680E-15     422.160E-18     1.10335E-15
            2224               1     2.57350E-15     2.46047E-15     835.494E-18     690.019E-18
            2225               1     4.05137E-15     3.92553E-15     125.847E-18    -125.847E-18
            2226               1     8.36025E-15     8.50722E-15    -1.59479E-15    -1.45624E-15
            2227               1     2.57679E-15     2.32582E-15    -959.032E-18    -566.481E-18
            2228               1     4.33010E-15     4.65262E-15    -2.22361E-15    -2.35293E-15
            2229               1     1.97425E-15     2.11761E-15     111.993E-18    -111.993E-18
            2230               1     4.20240E-15     4.28323E-15     514.526E-18     1.01099E-15
            2231               1     2.80707E-15     2.17021E-15    -977.505E-18    -548.008E-18
            2232               1     2.40366E-15     2.55884E-15     768.529E-18     756.984E-18
            2233               1     6.50235E-15     6.74551E-15    -3.01754E-15    -3.08451E-15
            2234               1     3.85642E-15     4.26186E-15     289.795E-18    -289.795E-18
            2235               1     4.32524E-15     4.58616E-15     897.841E-18     627.673E-18
            2236               1     5.96596E-15     5.42396E-15     3.20689E-15     2.89516E-15
            2237               1     7.24302E-15     6.92097E-15     1.33039E-15     1.72063E-15
            2238               1     2.68321E-15     2.71408E-15     1.53706E-15     1.51397E-15
            2239               1     2.78703E-15     2.63868E-15     842.421E-18     683.092E-18
            2240               1     1.76546E-15     1.77482E-15     771.993E-18     753.520E-18
            2241               1     3.98093E-15     5.76895E-15    -1.61211E-15    -1.43892E-15
            2242               1     3.70178E-15     6.09294E-15    -1.08216E-15    -1.96887E-15
            2243               1     3.52707E-15     3.36683E-15    -1.77144E-15    -1.27959E-15
            2244               1     3.12294E-15     2.30843E-15     872.440E-18     653.073E-18
            2245               1     2.79968E-15     1.48862E-15    -95.8287E-18     95.8287E-18
            2246               1     1.44574E-15     1.67884E-15    -669.237E-18    -856.276E-18
            2247               1     3.81048E-15     4.24352E-15     2.17512E-15     2.40142E-15
            2248               1     2.46695E-15     1.79298E-15     25.4004E-18    -25.4004E-18
            2249               1     2.98207E-15     1.95525E-15    -675.010E-18    -850.503E-18
            2250               1     1.57712E-15     1.66801E-15    -728.120E-18    -797.393E-18
            2251               1     2.40040E-15     2.72079E-15    -970.578E-18    -554.935E-18
            2252               1     1.59156E-15     2.39541E-15    -48.4917E-18     48.4917E-18
            2253               1     1.89981E-15     1.26517E-15    -874.749E-18    -650.764E-18
            2254               1     2.74681E-15     2.07759E-15    -900.150E-18    -625.364E-18
            2255               1     3.05433E-15     2.32701E-15    -1.73564E-15    -1.31538E-15
            2256               1     5.64852E-15     4.29184E-15    -1.32000E-15    -1.73103E-15
            2257               1     2.69946E-15     4.37224E-15    -912.850E-18    -612.663E-18
            2258               1     1.91937E-15     2.35289E-15     88.9014E-18    -88.9014E-18
            2259               1     100.541E-03     96.2685E-03     27.7117E-03     27.7903E-03
            2260               1     107.975E-03     104.141E-03     27.4640E-03     27.3231E-03
            2261               1     115.818E-03     111.585E-03     27.3771E-03     27.5177E-03
            2262               1     123.560E-03     119.483E-03     27.4762E-03     27.3709E-03
            2263               1     131.539E-03     127.309E-03     27.3883E-03     27.4652E-03
            2264               1     139.509E-03     135.304E-03     27.4473E-03     27.4029E-03
            2265               1     147.579E-03     143.328E-03     27.4109E-03     27.4397E-03
            2266               1     155.687E-03     151.421E-03     27.4296E-03     27.4207E-03
            2267               1     163.844E-03     159.557E-03     27.4245E-03     27.4257E-03
            2268               1     172.026E-03     167.746E-03     27.4163E-03     27.4335E-03
            2269               1     180.278E-03     175.930E-03     27.4391E-03     27.4086E-03
            2270               1     188.467E-03     184.237E-03     27.3909E-03     27.4524E-03
            2271               1     196.851E-03     192.374E-03     27.4536E-03     27.3606E-03
            2272               1     204.948E-03     200.878E-03     27.3104E-03     27.4528E-03
            2273               1     213.403E-03     208.684E-03     27.2740E-03     27.0936E-03
            2274               1     221.415E-03     217.596E-03     26.7942E-03     26.9925E-03
            2275               1     227.761E-03     222.858E-03     24.2514E-03     24.1343E-03
            2276               1     239.047E-03     234.948E-03     21.1187E-03     20.9606E-03
            2277               1     226.145E-03     222.090E-03    -16.5143E-03    -15.6680E-03
            2278               1     92.2303E-03     100.301E-03     24.3605E-03     24.2155E-03
            2279               1     98.8307E-03     108.090E-03     23.9763E-03     24.1608E-03
            2280               1     107.229E-03     115.759E-03     24.2392E-03     24.0824E-03
            2281               1     114.814E-03     124.016E-03     24.0869E-03     24.2085E-03
            2282               1     123.010E-03     131.914E-03     24.1930E-03     24.1147E-03
            2283               1     130.970E-03     140.144E-03     24.1268E-03     24.1793E-03
            2284               1     139.152E-03     148.263E-03     24.1663E-03     24.1407E-03
            2285               1     147.302E-03     156.499E-03     24.1463E-03     24.1606E-03
            2286               1     155.524E-03     164.737E-03     24.1516E-03     24.1555E-03
            2287               1     163.770E-03     173.015E-03     24.1606E-03     24.1471E-03
            2288               1     172.056E-03     181.306E-03     24.1355E-03     24.1735E-03
            2289               1     180.333E-03     189.653E-03     24.1893E-03     24.1276E-03
            2290               1     188.723E-03     197.937E-03     24.1123E-03     24.2195E-03
            2291               1     196.939E-03     206.405E-03     24.2970E-03     24.1421E-03
            2292               1     205.597E-03     214.647E-03     24.1975E-03     24.4145E-03
            2293               1     213.464E-03     223.180E-03     25.1622E-03     24.9101E-03
            2294               1     223.591E-03     232.388E-03     25.8860E-03     26.1155E-03
            2295               1     229.512E-03     239.062E-03     36.0257E-03     35.9909E-03
            2296               1     262.456E-03     271.131E-03     46.3758E-03     45.8978E-03
            2297               1     112.521E-03     111.226E-03     37.7622E-03     38.2418E-03
            2298               1     119.913E-03     118.793E-03     36.1210E-03     36.2800E-03
            2299               1     127.660E-03     126.812E-03     35.2099E-03     35.2972E-03
            2300               1     135.833E-03     134.935E-03     34.5177E-03     34.5378E-03
            2301               1     144.326E-03     143.484E-03     34.1535E-03     34.1402E-03
            2302               1     152.876E-03     151.953E-03     33.6649E-03     33.6676E-03
            2303               1     161.672E-03     160.778E-03     33.4240E-03     33.4145E-03
            2304               1     170.203E-03     169.256E-03     32.8054E-03     32.8082E-03
            2305               1     179.105E-03     178.185E-03     32.5116E-03     32.5082E-03
            2306               1     187.249E-03     186.286E-03     31.3584E-03     31.3593E-03
            2307               1     196.144E-03     195.208E-03     30.8512E-03     30.8484E-03
            2308               1     203.320E-03     202.339E-03     28.3875E-03     28.3918E-03
            2309               1     212.123E-03     211.183E-03     27.3930E-03     27.3872E-03
            2310               1     217.272E-03     216.335E-03     21.8483E-03     21.8960E-03
            2311               1     225.797E-03     224.903E-03     19.6789E-03     19.6429E-03
            2312               1     227.072E-03     226.517E-03     6.61310E-03     6.90850E-03
            2313               1     231.786E-03     231.008E-03     933.368E-06     544.091E-06
            2314               1     228.853E-03     228.037E-03    -24.2525E-03    -23.9752E-03
            2315               1     249.236E-03     246.125E-03    -30.7143E-03    -33.8773E-03
            2316               1     107.954E-03     109.429E-03     32.1503E-03     32.5023E-03
            2317               1     115.461E-03     116.695E-03     31.0023E-03     31.4714E-03
            2318               1     123.982E-03     124.911E-03     30.7170E-03     30.8074E-03
            2319               1     132.551E-03     133.381E-03     30.5034E-03     30.5150E-03
            2320               1     141.212E-03     142.051E-03     30.2160E-03     30.2363E-03
            2321               1     150.165E-03     151.010E-03     30.0986E-03     30.0657E-03
            2322               1     158.957E-03     159.822E-03     29.7809E-03     29.7943E-03
            2323               1     168.218E-03     169.091E-03     29.6461E-03     29.6329E-03
            2324               1     176.897E-03     177.773E-03     29.1558E-03     29.1569E-03
            2325               1     186.533E-03     187.420E-03     28.9294E-03     28.9340E-03
            2326               1     194.736E-03     195.623E-03     27.9599E-03     27.9443E-03
            2327               1     205.100E-03     205.991E-03     27.5369E-03     27.5589E-03
            2328               1     212.189E-03     213.111E-03     25.4551E-03     25.4380E-03
            2329               1     224.344E-03     225.171E-03     24.6926E-03     24.7378E-03
            2330               1     229.147E-03     230.238E-03     19.9907E-03     20.0964E-03
            2331               1     245.466E-03     245.743E-03     18.6787E-03     18.5991E-03
            2332               1     246.059E-03     247.497E-03     5.04558E-03     5.59831E-03
            2333               1     261.664E-03     261.952E-03    -1.46443E-03    -2.92405E-03
            2334               1     239.037E-03     245.158E-03    -1.93964E-03    -2.67229E-03
            2335               1     101.801E-03     105.598E-03     25.8566E-03     26.1158E-03
            2336               1     111.076E-03     114.270E-03     26.1824E-03     26.1581E-03
            2337               1     119.984E-03     122.606E-03     26.1552E-03     26.1434E-03
            2338               1     129.010E-03     131.691E-03     26.2511E-03     26.2788E-03
            2339               1     138.130E-03     140.732E-03     26.3471E-03     26.3120E-03
            2340               1     147.177E-03     149.866E-03     26.3357E-03     26.3664E-03
            2341               1     156.542E-03     159.219E-03     26.3757E-03     26.3525E-03
            2342               1     165.591E-03     168.313E-03     26.3602E-03     26.3721E-03
            2343               1     175.327E-03     178.044E-03     26.3679E-03     26.3666E-03
            2344               1     184.210E-03     186.952E-03     26.3767E-03     26.3651E-03
            2345               1     194.634E-03     197.372E-03     26.3662E-03     26.3894E-03
            2346               1     203.019E-03     205.787E-03     26.4345E-03     26.3981E-03
            2347               1     214.993E-03     217.702E-03     26.4674E-03     26.5134E-03
            2348               1     222.210E-03     225.028E-03     26.6997E-03     26.6488E-03
            2349               1     238.031E-03     240.390E-03     27.0671E-03     27.1170E-03
            2350               1     242.492E-03     245.546E-03     27.0240E-03     26.9642E-03
            2351               1     269.967E-03     271.103E-03     27.7848E-03     27.6710E-03
            2352               1     268.307E-03     273.375E-03     17.9469E-03     18.7869E-03
            2353               1     245.391E-03     250.421E-03     5.46164E-03     6.62310E-03
            2354               1     97.9388E-03     102.806E-03     21.7368E-03     21.1444E-03
            2355               1     106.862E-03     111.027E-03     21.4923E-03     21.0916E-03
            2356               1     116.179E-03     120.706E-03     21.8992E-03     21.8236E-03
            2357               1     125.534E-03     129.927E-03     22.1614E-03     22.0988E-03
            2358               1     134.898E-03     139.461E-03     22.4454E-03     22.4821E-03
            2359               1     144.340E-03     148.855E-03     22.6466E-03     22.6278E-03
            2360               1     153.654E-03     158.246E-03     22.9292E-03     22.9523E-03
            2361               1     163.272E-03     167.839E-03     23.0981E-03     23.0905E-03
            2362               1     172.526E-03     177.135E-03     23.5799E-03     23.5795E-03
            2363               1     182.493E-03     187.085E-03     23.8011E-03     23.8139E-03
            2364               1     191.567E-03     196.192E-03     24.8150E-03     24.7915E-03
            2365               1     202.266E-03     206.858E-03     25.2205E-03     25.2562E-03
            2366               1     210.880E-03     215.526E-03     27.4540E-03     27.3945E-03
            2367               1     223.256E-03     227.744E-03     28.3174E-03     28.3573E-03
            2368               1     230.846E-03     235.530E-03     33.1323E-03     32.9470E-03
            2369               1     248.030E-03     252.043E-03     34.7671E-03     34.8828E-03
            2370               1     254.400E-03     259.500E-03     44.7648E-03     44.2809E-03
            2371               1     291.264E-03     294.163E-03     46.7623E-03     47.9283E-03
            2372               1     279.578E-03     283.226E-03     12.5344E-03     14.0172E-03
            2373               1     95.0082E-03     99.4693E-03     17.1375E-03     16.5000E-03
            2374               1     103.276E-03     109.216E-03     17.5145E-03     17.3745E-03
            2375               1     112.594E-03     118.739E-03     17.7699E-03     17.6511E-03
            2376               1     122.188E-03     128.683E-03     18.2740E-03     18.2851E-03
            2377               1     131.796E-03     138.210E-03     18.5633E-03     18.5519E-03
            2378               1     141.345E-03     147.858E-03     19.0221E-03     19.0372E-03
            2379               1     150.899E-03     157.347E-03     19.2727E-03     19.2697E-03
            2380               1     160.346E-03     166.853E-03     19.8847E-03     19.8878E-03
            2381               1     169.870E-03     176.338E-03     20.1846E-03     20.1877E-03
            2382               1     179.213E-03     185.725E-03     21.3447E-03     21.3369E-03
            2383               1     188.738E-03     195.206E-03     21.8483E-03     21.8645E-03
            2384               1     197.895E-03     204.406E-03     24.3123E-03     24.2861E-03
            2385               1     207.427E-03     213.866E-03     25.2551E-03     25.2918E-03
            2386               1     216.337E-03     222.857E-03     30.5377E-03     30.4453E-03
            2387               1     226.072E-03     232.507E-03     32.1205E-03     32.2101E-03
            2388               1     235.685E-03     242.288E-03     43.2984E-03     42.9653E-03
            2389               1     247.557E-03     254.000E-03     44.6699E-03     45.2310E-03
            2390               1     266.013E-03     272.233E-03     66.5982E-03     65.5126E-03
            2391               1     336.309E-03     343.063E-03     56.2450E-03     58.0218E-03
            2392               1     53.3998E-03     53.2392E-03     30.7418E-03     30.7305E-03
            2393               1     51.7477E-03     51.7407E-03     29.5970E-03     29.7698E-03
            2394               1     51.4319E-03     50.9797E-03     29.2647E-03     29.2194E-03
            2395               1     50.5796E-03     50.2261E-03     28.6093E-03     28.6700E-03
            2396               1     50.3545E-03     49.8238E-03     28.3611E-03     28.3405E-03
            2397               1     50.0321E-03     49.5157E-03     28.0412E-03     28.0608E-03
            2398               1     49.8245E-03     49.2295E-03     27.8125E-03     27.8062E-03
            2399               1     49.7913E-03     49.1727E-03     27.6638E-03     27.6688E-03
            2400               1     49.3984E-03     48.7327E-03     27.3208E-03     27.3199E-03
            2401               1     49.4472E-03     48.7431E-03     27.2116E-03     27.2113E-03
            2402               1     48.5457E-03     47.8125E-03     26.5671E-03     26.5726E-03
            2403               1     48.4005E-03     47.6067E-03     26.3493E-03     26.3408E-03
            2404               1     46.3706E-03     45.5975E-03     25.0796E-03     25.1031E-03
            2405               1     45.4433E-03     44.5446E-03     24.5038E-03     24.4664E-03
            2406               1     41.1604E-03     40.4154E-03     22.1284E-03     22.1816E-03
            2407               1     38.4498E-03     37.4345E-03     20.9262E-03     20.7805E-03
            2408               1     30.2809E-03     29.7739E-03     16.9487E-03     16.9594E-03
            2409               1     27.5154E-03     27.0555E-03     15.7997E-03     15.1774E-03
            2410               1     33.9236E-03     38.3956E-03     8.61077E-03     7.28161E-03
            2411               1     51.3406E-03     51.7795E-03     29.5021E-03     29.8345E-03
            2412               1     50.7327E-03     50.5186E-03     29.0023E-03     28.9934E-03
            2413               1     49.8582E-03     49.8363E-03     28.2936E-03     28.4592E-03
            2414               1     49.7707E-03     49.3854E-03     28.1426E-03     28.1004E-03
            2415               1     49.4209E-03     49.1546E-03     27.7938E-03     27.8578E-03
            2416               1     49.3830E-03     48.9743E-03     27.6893E-03     27.6731E-03
            2417               1     49.3819E-03     48.9907E-03     27.5506E-03     27.5696E-03
            2418               1     49.2510E-03     48.8048E-03     27.3827E-03     27.3780E-03
            2419               1     49.4374E-03     48.9704E-03     27.3330E-03     27.3375E-03
            2420               1     49.0726E-03     48.5822E-03     27.0143E-03     27.0160E-03
            2421               1     49.3567E-03     48.8169E-03     26.9827E-03     26.9791E-03
            2422               1     48.4624E-03     47.9475E-03     26.3476E-03     26.3670E-03
            2423               1     48.6605E-03     48.0091E-03     26.2307E-03     26.2000E-03
            2424               1     46.5186E-03     46.0319E-03     24.9171E-03     24.9789E-03
            2425               1     45.8819E-03     45.0386E-03     24.4270E-03     24.3048E-03
            2426               1     40.9947E-03     40.5469E-03     21.9332E-03     21.9817E-03
            2427               1     37.3520E-03     36.2464E-03     20.3335E-03     19.9387E-03
            2428               1     28.6549E-03     27.8688E-03     16.4769E-03     15.8687E-03
            2429               1     17.5829E-03     15.2668E-03     2.85534E-03     2.90338E-03
            2430               1     50.8597E-03     50.9010E-03     29.2433E-03     29.2896E-03
            2431               1     49.4924E-03     49.5767E-03     28.2293E-03     28.3546E-03
            2432               1     48.8840E-03     48.6746E-03     27.7694E-03     27.7217E-03
            2433               1     48.4998E-03     48.4509E-03     27.3784E-03     27.4717E-03
            2434               1     48.5711E-03     48.3514E-03     27.3580E-03     27.3366E-03
            2435               1     48.6523E-03     48.4774E-03     27.2616E-03     27.2952E-03
            2436               1     48.7451E-03     48.5095E-03     27.2465E-03     27.2393E-03
            2437               1     49.0201E-03     48.7813E-03     27.2506E-03     27.2599E-03
            2438               1     49.0261E-03     48.7665E-03     27.1715E-03     27.1693E-03
            2439               1     49.4709E-03     49.1891E-03     27.2354E-03     27.2369E-03
            2440               1     49.3069E-03     49.0335E-03     27.0510E-03     27.0563E-03
            2441               1     49.9559E-03     49.6103E-03     27.1671E-03     27.1550E-03
            2442               1     49.2774E-03     49.0287E-03     26.6996E-03     26.7295E-03
            2443               1     49.8536E-03     49.3796E-03     26.7079E-03     26.6499E-03
            2444               1     47.3993E-03     47.2525E-03     25.3364E-03     25.4160E-03
            2445               1     45.6390E-03     45.0872E-03     24.2050E-03     24.0791E-03
            2446               1     38.4179E-03     38.3319E-03     20.8564E-03     20.8400E-03
            2447               1     23.6771E-03     24.4929E-03     13.2414E-03     13.6087E-03
            2448               1     4.27412E-03     5.39785E-03     2.32140E-03     2.98947E-03
            2449               1     51.8097E-03     51.3089E-03     29.7075E-03     29.3882E-03
            2450               1     48.8537E-03     48.7157E-03     27.8747E-03     27.7839E-03
            2451               1     47.8934E-03     47.8888E-03     27.1619E-03     27.1844E-03
            2452               1     47.6415E-03     47.6272E-03     26.9678E-03     26.9581E-03
            2453               1     47.7768E-03     47.7583E-03     26.9002E-03     26.9208E-03
            2454               1     47.9563E-03     47.9313E-03     26.9514E-03     26.9500E-03
            2455               1     48.3090E-03     48.2676E-03     27.0078E-03     27.0138E-03
            2456               1     48.5250E-03     48.4835E-03     27.0676E-03     27.0657E-03
            2457               1     48.9880E-03     48.9385E-03     27.1640E-03     27.1666E-03
            2458               1     49.2075E-03     49.1578E-03     27.2253E-03     27.2222E-03
            2459               1     49.8735E-03     49.8108E-03     27.3900E-03     27.3913E-03
            2460               1     50.0225E-03     49.9802E-03     27.4320E-03     27.4307E-03
            2461               1     50.9068E-03     50.8015E-03     27.6358E-03     27.6276E-03
            2462               1     50.3625E-03     50.3718E-03     27.3322E-03     27.3473E-03
            2463               1     50.5500E-03     50.4066E-03     27.0084E-03     26.9973E-03
            2464               1     46.5882E-03     46.8230E-03     24.7954E-03     24.9175E-03
            2465               1     39.8214E-03     40.4124E-03     20.6663E-03     20.9646E-03
            2466               1     27.5779E-03     28.1568E-03     12.9333E-03     13.4411E-03
            2467               1     12.4611E-03     13.7732E-03     2.03875E-03     2.43760E-03
            2468               1     51.4082E-03     50.8478E-03     29.3058E-03     28.9416E-03
            2469               1     48.3756E-03     48.2769E-03     27.5234E-03     27.4030E-03
            2470               1     47.2085E-03     47.3545E-03     26.8371E-03     26.8332E-03
            2471               1     47.1516E-03     47.1899E-03     26.6826E-03     26.6413E-03
            2472               1     47.1402E-03     47.3191E-03     26.6368E-03     26.6505E-03
            2473               1     47.5317E-03     47.6347E-03     26.7272E-03     26.7109E-03
            2474               1     47.7877E-03     47.9523E-03     26.8174E-03     26.8215E-03
            2475               1     48.2267E-03     48.3721E-03     26.9215E-03     26.9172E-03
            2476               1     48.5864E-03     48.7492E-03     27.0709E-03     27.0679E-03
            2477               1     49.1072E-03     49.2807E-03     27.1951E-03     27.1983E-03
            2478               1     49.5782E-03     49.7441E-03     27.4318E-03     27.4201E-03
            2479               1     50.2617E-03     50.4531E-03     27.5947E-03     27.6064E-03
            2480               1     50.6971E-03     50.8692E-03     27.8587E-03     27.8326E-03
            2481               1     51.3304E-03     51.5452E-03     27.8521E-03     27.8847E-03
            2482               1     50.5723E-03     50.8164E-03     27.4296E-03     27.4169E-03
            2483               1     49.5019E-03     49.8845E-03     25.9831E-03     26.1172E-03
            2484               1     42.6139E-03     43.3764E-03     20.9876E-03     21.3908E-03
            2485               1     34.0246E-03     35.1650E-03     13.9177E-03     14.3089E-03
            2486               1     27.0873E-03     26.9296E-03     2.16118E-03     2.81419E-03
            2487               1     49.5099E-03     49.7182E-03     28.0525E-03     28.0355E-03
            2488               1     47.7258E-03     48.0580E-03     27.1615E-03     27.1943E-03
            2489               1     47.2064E-03     47.2235E-03     26.8120E-03     26.6742E-03
            2490               1     46.6824E-03     47.0585E-03     26.4991E-03     26.5424E-03
            2491               1     47.0043E-03     47.1794E-03     26.5766E-03     26.5100E-03
            2492               1     47.0835E-03     47.4396E-03     26.5698E-03     26.5867E-03
            2493               1     47.4737E-03     47.7705E-03     26.6669E-03     26.6448E-03
            2494               1     47.8031E-03     48.1655E-03     26.7953E-03     26.7978E-03
            2495               1     48.1751E-03     48.5453E-03     26.8660E-03     26.8634E-03
            2496               1     48.6823E-03     49.0579E-03     27.1121E-03     27.1031E-03
            2497               1     49.0550E-03     49.4799E-03     27.1550E-03     27.1670E-03
            2498               1     49.7323E-03     50.1083E-03     27.5361E-03     27.5057E-03
            2499               1     50.0371E-03     50.5340E-03     27.4578E-03     27.5005E-03
            2500               1     50.6536E-03     51.0164E-03     27.8226E-03     27.7498E-03
            2501               1     50.5311E-03     51.1712E-03     27.1684E-03     27.2779E-03
            2502               1     49.6196E-03     50.0803E-03     26.3444E-03     26.2665E-03
            2503               1     49.7875E-03     50.3798E-03     24.0160E-03     24.0875E-03
            2504               1     42.8285E-03     43.4853E-03     14.7170E-03     15.3242E-03
            2505               1     38.7350E-03     40.4823E-03     3.68235E-03     4.19216E-03
            2506               1     48.5411E-03     49.4087E-03     27.5249E-03     27.7578E-03
            2507               1     47.9525E-03     48.1144E-03     27.2415E-03     27.1016E-03
            2508               1     46.8762E-03     47.4493E-03     26.6743E-03     26.7560E-03
            2509               1     46.9832E-03     47.2111E-03     26.6767E-03     26.5623E-03
            2510               1     46.6758E-03     47.1960E-03     26.4614E-03     26.4912E-03
            2511               1     46.9395E-03     47.3558E-03     26.5140E-03     26.4708E-03
            2512               1     47.0954E-03     47.6359E-03     26.5392E-03     26.5482E-03
            2513               1     47.3490E-03     47.8870E-03     26.5683E-03     26.5576E-03
            2514               1     47.7696E-03     48.3466E-03     26.7476E-03     26.7456E-03
            2515               1     47.9338E-03     48.5528E-03     26.7088E-03     26.7125E-03
            2516               1     48.5470E-03     49.1513E-03     27.0179E-03     27.0016E-03
            2517               1     48.4936E-03     49.1981E-03     26.8111E-03     26.8361E-03
            2518               1     49.2548E-03     49.8674E-03     27.2171E-03     27.1676E-03
            2519               1     48.7499E-03     49.6080E-03     26.5760E-03     26.6533E-03
            2520               1     49.5808E-03     50.2113E-03     26.9007E-03     26.7743E-03
            2521               1     48.9796E-03     50.0693E-03     25.3605E-03     25.4696E-03
            2522               1     49.9941E-03     50.7523E-03     24.8708E-03     24.5593E-03
            2523               1     57.8381E-03     58.5473E-03     22.0217E-03     21.6745E-03
            2524               1     58.4741E-03     57.1721E-03     4.71081E-03     5.15833E-03
            2525               1     49.5584E-03     50.0400E-03     28.0373E-03     27.9482E-03
            2526               1     47.6965E-03     48.5074E-03     27.1194E-03     27.2417E-03
            2527               1     47.4743E-03     47.8713E-03     27.0023E-03     26.9097E-03
            2528               1     46.6639E-03     47.3239E-03     26.5278E-03     26.5621E-03
            2529               1     46.6619E-03     47.2202E-03     26.4683E-03     26.4283E-03
            2530               1     46.5329E-03     47.2258E-03     26.3362E-03     26.3472E-03
            2531               1     46.6581E-03     47.3534E-03     26.3210E-03     26.3092E-03
            2532               1     46.9376E-03     47.6951E-03     26.4090E-03     26.4112E-03
            2533               1     47.0200E-03     47.8155E-03     26.3529E-03     26.3517E-03
            2534               1     47.5419E-03     48.3635E-03     26.5800E-03     26.5761E-03
            2535               1     47.3809E-03     48.2688E-03     26.3585E-03     26.3654E-03
            2536               1     48.0352E-03     48.9191E-03     26.6537E-03     26.6375E-03
            2537               1     47.3168E-03     48.3397E-03     26.0192E-03     26.0471E-03
            2538               1     48.0571E-03     49.0354E-03     26.2717E-03     26.2227E-03
            2539               1     46.5360E-03     47.8422E-03     24.7769E-03     24.8495E-03
            2540               1     48.1124E-03     49.3406E-03     25.0140E-03     24.8582E-03
            2541               1     47.5383E-03     49.5238E-03     21.9934E-03     22.0905E-03
            2542               1     55.8786E-03     57.9420E-03     23.8546E-03     23.2481E-03
            2543               1     81.6471E-03     86.2132E-03     16.3197E-03     15.5191E-03
            2544               1     63.9304E-03     63.3655E-03     35.5455E-03     35.6558E-03
            2545               1     63.3455E-03     62.8736E-03     34.2056E-03     34.4651E-03
            2546               1     63.6101E-03     62.7831E-03     33.4786E-03     33.5149E-03
            2547               1     63.5789E-03     62.8127E-03     32.4953E-03     32.6087E-03
            2548               1     63.8336E-03     62.9185E-03     31.7507E-03     31.7678E-03
            2549               1     64.1670E-03     63.2578E-03     30.9944E-03     31.0424E-03
            2550               1     64.3846E-03     63.3954E-03     30.1917E-03     30.2012E-03
            2551               1     64.8683E-03     63.8582E-03     29.4979E-03     29.5175E-03
            2552               1     64.8165E-03     63.7488E-03     28.4583E-03     28.4650E-03
            2553               1     65.1462E-03     64.0449E-03     27.6246E-03     27.6316E-03
            2554               1     64.4479E-03     63.3001E-03     26.0968E-03     26.1055E-03
            2555               1     64.1456E-03     62.9404E-03     24.8664E-03     24.8605E-03
            2556               1     62.2448E-03     61.0017E-03     22.5488E-03     22.5611E-03
            2557               1     60.5065E-03     59.1203E-03     20.5947E-03     20.5493E-03
            2558               1     56.5789E-03     55.1148E-03     17.2119E-03     17.2054E-03
            2559               1     52.0957E-03     50.1997E-03     14.2070E-03     14.0219E-03
            2560               1     44.5725E-03     42.2377E-03     9.60828E-03     9.43825E-03
            2561               1     34.8642E-03     31.0695E-03     5.50932E-03     4.73889E-03
            2562               1     15.9542E-03     9.88880E-03    -455.155E-06    -2.66754E-03
            2563               1     61.0971E-03     61.5349E-03     33.6604E-03     34.1730E-03
            2564               1     61.1957E-03     61.0831E-03     32.7983E-03     33.0177E-03
            2565               1     61.4818E-03     61.3614E-03     31.8564E-03     32.1764E-03
            2566               1     62.0005E-03     61.5333E-03     31.2765E-03     31.3646E-03
            2567               1     62.5397E-03     62.0905E-03     30.5779E-03     30.7361E-03
            2568               1     63.0809E-03     62.4723E-03     30.0097E-03     30.0523E-03
            2569               1     63.8780E-03     63.2554E-03     29.4529E-03     29.5231E-03
            2570               1     64.3246E-03     63.6295E-03     28.7543E-03     28.7768E-03
            2571               1     65.2410E-03     64.5147E-03     28.1858E-03     28.2155E-03
            2572               1     65.3922E-03     64.6323E-03     27.1806E-03     27.1968E-03
            2573               1     66.1799E-03     65.3620E-03     26.4264E-03     26.4319E-03
            2574               1     65.6846E-03     64.8689E-03     24.8708E-03     24.8900E-03
            2575               1     65.8299E-03     64.8736E-03     23.7044E-03     23.6599E-03
            2576               1     64.0829E-03     63.1734E-03     21.3060E-03     21.3094E-03
            2577               1     62.4860E-03     61.2570E-03     19.4313E-03     19.2295E-03
            2578               1     58.2711E-03     57.0989E-03     16.0136E-03     15.8471E-03
            2579               1     52.6562E-03     50.9907E-03     13.0698E-03     12.4115E-03
            2580               1     41.8974E-03     40.2926E-03     8.78713E-03     7.58821E-03
            2581               1     22.6655E-03     26.6775E-03    -545.540E-06    -1.10085E-03
            2582               1     59.5381E-03     59.9393E-03     32.7470E-03     32.9609E-03
            2583               1     59.6109E-03     59.9224E-03     31.5697E-03     31.8528E-03
            2584               1     59.7018E-03     59.7292E-03     30.6724E-03     30.7909E-03
            2585               1     60.3895E-03     60.4038E-03     29.9673E-03     30.1920E-03
            2586               1     61.1191E-03     60.9348E-03     29.5378E-03     29.6053E-03
            2587               1     62.1752E-03     61.9583E-03     29.1048E-03     29.2221E-03
            2588               1     63.0086E-03     62.7067E-03     28.7091E-03     28.7469E-03
            2589               1     64.3292E-03     63.9864E-03     28.3750E-03     28.4282E-03
            2590               1     65.0933E-03     64.7206E-03     27.8320E-03     27.8527E-03
            2591               1     66.5696E-03     66.1467E-03     27.4623E-03     27.4827E-03
            2592               1     67.0403E-03     66.6304E-03     26.5878E-03     26.6039E-03
            2593               1     68.4316E-03     67.9159E-03     26.0342E-03     26.0181E-03
            2594               1     68.1411E-03     67.7188E-03     24.5209E-03     24.5357E-03
            2595               1     68.6647E-03     68.0141E-03     23.5001E-03     23.3906E-03
            2596               1     66.6165E-03     66.2002E-03     20.9353E-03     20.8907E-03
            2597               1     64.1605E-03     63.5067E-03     18.8281E-03     18.5201E-03
            2598               1     57.9519E-03     57.7299E-03     14.8390E-03     14.4676E-03
            2599               1     46.8122E-03     48.4563E-03     9.06888E-03     9.04151E-03
            2600               1     37.3557E-03     37.0566E-03    -509.427E-06     204.025E-06
            2601               1     60.4548E-03     60.3455E-03     32.9501E-03     32.6607E-03
            2602               1     58.2719E-03     58.5142E-03     30.6376E-03     30.6290E-03
            2603               1     58.4311E-03     58.6931E-03     29.6078E-03     29.7173E-03
            2604               1     58.8216E-03     59.0286E-03     28.9651E-03     29.0114E-03
            2605               1     59.9483E-03     60.0828E-03     28.5540E-03     28.6628E-03
            2606               1     60.9559E-03     61.0534E-03     28.3242E-03     28.3652E-03
            2607               1     62.5228E-03     62.5437E-03     28.1601E-03     28.2182E-03
            2608               1     63.6863E-03     63.6986E-03     27.9625E-03     27.9849E-03
            2609               1     65.5359E-03     65.4934E-03     27.8672E-03     27.8948E-03
            2610               1     66.6517E-03     66.6225E-03     27.5354E-03     27.5448E-03
            2611               1     68.7124E-03     68.6161E-03     27.4100E-03     27.4173E-03
            2612               1     69.4501E-03     69.4267E-03     26.7044E-03     26.7105E-03
            2613               1     71.3832E-03     71.2194E-03     26.3547E-03     26.3257E-03
            2614               1     70.9403E-03     71.0022E-03     24.7308E-03     24.7406E-03
            2615               1     71.2535E-03     71.1497E-03     23.5215E-03     23.4369E-03
            2616               1     67.9639E-03     68.2885E-03     20.1049E-03     20.0931E-03
            2617               1     62.7099E-03     63.6583E-03     16.2037E-03     16.2951E-03
            2618               1     55.3016E-03     55.8827E-03     9.08671E-03     9.49377E-03
            2619               1     46.8348E-03     48.7099E-03     132.797E-06     83.6600E-06
            2620               1     59.8347E-03     59.5338E-03     31.9985E-03     31.5880E-03
            2621               1     57.7666E-03     57.9510E-03     29.9605E-03     29.7862E-03
            2622               1     57.0248E-03     57.3897E-03     28.6667E-03     28.5857E-03
            2623               1     57.6834E-03     58.0282E-03     28.0360E-03     28.0439E-03
            2624               1     58.5068E-03     58.9507E-03     27.7511E-03     27.7615E-03
            2625               1     60.1218E-03     60.4439E-03     27.6572E-03     27.6783E-03
            2626               1     61.4564E-03     61.8378E-03     27.6472E-03     27.6613E-03
            2627               1     63.4620E-03     63.7637E-03     27.7212E-03     27.7353E-03
            2628               1     64.9597E-03     65.2948E-03     27.7499E-03     27.7519E-03
            2629               1     67.2688E-03     67.5572E-03     27.8803E-03     27.8920E-03
            2630               1     68.6869E-03     69.0191E-03     27.7896E-03     27.7817E-03
            2631               1     71.2550E-03     71.5218E-03     27.8782E-03     27.8880E-03
            2632               1     72.0643E-03     72.4685E-03     27.2673E-03     27.2666E-03
            2633               1     74.3701E-03     74.6594E-03     26.9198E-03     26.9344E-03
            2634               1     73.2766E-03     73.9250E-03     24.6525E-03     24.7348E-03
            2635               1     72.7474E-03     73.4917E-03     22.4235E-03     22.5476E-03
            2636               1     68.3402E-03     69.3081E-03     16.6690E-03     17.0716E-03
            2637               1     62.5411E-03     64.0849E-03     10.1847E-03     10.3882E-03
            2638               1     59.0394E-03     59.7777E-03     236.672E-06     1.01793E-03
            2639               1     58.6066E-03     58.7531E-03     30.7266E-03     30.4389E-03
            2640               1     56.6027E-03     56.8284E-03     28.8899E-03     28.6229E-03
            2641               1     55.9675E-03     56.3555E-03     27.7322E-03     27.5814E-03
            2642               1     56.1858E-03     56.8671E-03     27.1999E-03     27.1504E-03
            2643               1     57.5616E-03     58.0737E-03     27.0585E-03     26.9865E-03
            2644               1     58.7967E-03     59.5051E-03     27.0625E-03     27.0554E-03
            2645               1     60.7939E-03     61.3773E-03     27.2154E-03     27.1844E-03
            2646               1     62.4373E-03     63.1171E-03     27.4161E-03     27.4081E-03
            2647               1     64.7478E-03     65.3775E-03     27.6681E-03     27.6625E-03
            2648               1     66.5340E-03     67.2064E-03     27.9366E-03     27.9176E-03
            2649               1     69.1729E-03     69.8296E-03     28.2310E-03     28.2471E-03
            2650               1     70.8073E-03     71.5159E-03     28.3707E-03     28.3434E-03
            2651               1     73.7895E-03     74.4738E-03     28.5374E-03     28.5868E-03
            2652               1     74.5265E-03     75.3802E-03     27.8394E-03     27.8520E-03
            2653               1     77.3698E-03     78.1795E-03     27.1442E-03     27.2777E-03
            2654               1     75.6348E-03     76.8270E-03     23.3137E-03     23.6103E-03
            2655               1     75.1482E-03     76.4097E-03     19.3678E-03     19.6213E-03
            2656               1     71.9738E-03     73.1216E-03     10.5892E-03     11.2989E-03
            2657               1     68.4798E-03     70.2318E-03     1.50286E-03     1.77683E-03
            2658               1     57.3186E-03     57.3924E-03     29.2848E-03     28.9412E-03
            2659               1     54.8981E-03     55.4254E-03     27.4387E-03     27.2819E-03
            2660               1     54.3998E-03     55.2323E-03     26.7632E-03     26.6691E-03
            2661               1     55.2467E-03     55.8559E-03     26.4953E-03     26.3146E-03
            2662               1     56.1312E-03     57.1001E-03     26.3963E-03     26.3620E-03
            2663               1     57.9636E-03     58.7507E-03     26.5583E-03     26.4541E-03
            2664               1     59.5363E-03     60.5258E-03     26.7713E-03     26.7494E-03
            2665               1     61.7186E-03     62.6381E-03     27.0567E-03     27.0136E-03
            2666               1     63.6169E-03     64.6204E-03     27.4548E-03     27.4295E-03
            2667               1     66.0625E-03     67.0675E-03     27.7976E-03     27.7968E-03
            2668               1     68.0867E-03     69.1147E-03     28.3011E-03     28.2624E-03
            2669               1     70.9094E-03     71.9761E-03     28.6375E-03     28.6812E-03
            2670               1     72.7702E-03     73.8616E-03     28.9833E-03     28.9376E-03
            2671               1     76.2573E-03     77.3875E-03     29.0350E-03     29.1520E-03
            2672               1     77.1796E-03     78.4537E-03     28.1226E-03     28.1631E-03
            2673               1     81.9880E-03     83.1065E-03     26.9462E-03     27.1434E-03
            2674               1     80.6183E-03     82.1590E-03     20.4610E-03     21.0138E-03
            2675               1     81.4172E-03     83.0129E-03     14.1239E-03     14.3871E-03
            2676               1     81.7369E-03     82.4533E-03     2.12872E-03     2.88602E-03
            2677               1     54.1963E-03     55.2028E-03     26.8140E-03     26.8988E-03
            2678               1     52.9837E-03     54.1490E-03     26.2350E-03     26.2528E-03
            2679               1     53.3746E-03     54.0777E-03     25.9617E-03     25.7246E-03
            2680               1     53.7665E-03     54.9675E-03     25.7517E-03     25.7244E-03
            2681               1     55.3240E-03     56.2463E-03     25.9021E-03     25.7203E-03
            2682               1     56.6372E-03     57.8924E-03     26.0192E-03     25.9884E-03
            2683               1     58.6093E-03     59.7670E-03     26.2875E-03     26.1973E-03
            2684               1     60.4274E-03     61.7436E-03     26.6568E-03     26.6288E-03
            2685               1     62.6101E-03     63.9267E-03     26.9718E-03     26.9440E-03
            2686               1     64.7121E-03     66.0760E-03     27.5466E-03     27.5103E-03
            2687               1     67.1231E-03     68.5458E-03     27.8660E-03     27.8866E-03
            2688               1     69.4063E-03     70.8097E-03     28.5891E-03     28.5313E-03
            2689               1     72.3088E-03     73.8208E-03     28.7952E-03     28.8802E-03
            2690               1     74.6938E-03     76.1582E-03     29.4101E-03     29.3308E-03
            2691               1     79.1395E-03     80.6869E-03     29.1908E-03     29.3603E-03
            2692               1     81.3062E-03     82.9073E-03     28.4449E-03     28.4154E-03
            2693               1     91.4074E-03     92.5765E-03     27.0127E-03     27.1750E-03
            2694               1     92.1171E-03     93.4836E-03     15.7334E-03     16.5071E-03
            2695               1     93.0053E-03     95.3732E-03     5.13854E-03     5.44415E-03
            2696               1     51.6728E-03     53.5121E-03     25.4094E-03     25.7171E-03
            2697               1     52.0058E-03     52.9278E-03     25.4362E-03     25.2449E-03
            2698               1     51.8411E-03     53.3030E-03     25.1462E-03     25.1869E-03
            2699               1     53.0927E-03     54.1498E-03     25.3106E-03     25.1019E-03
            2700               1     54.0157E-03     55.4955E-03     25.2865E-03     25.2639E-03
            2701               1     55.6926E-03     57.0623E-03     25.5040E-03     25.3861E-03
            2702               1     57.2912E-03     58.8921E-03     25.7589E-03     25.7344E-03
            2703               1     59.2020E-03     60.8073E-03     26.0188E-03     25.9709E-03
            2704               1     61.2088E-03     62.9110E-03     26.5159E-03     26.4905E-03
            2705               1     63.2556E-03     65.0127E-03     26.7741E-03     26.7707E-03
            2706               1     65.5602E-03     67.3295E-03     27.4894E-03     27.4499E-03
            2707               1     67.7992E-03     69.6697E-03     27.6489E-03     27.6902E-03
            2708               1     70.5028E-03     72.3207E-03     28.5740E-03     28.5020E-03
            2709               1     73.4370E-03     75.4112E-03     28.4474E-03     28.5558E-03
            2710               1     77.0721E-03     78.9401E-03     29.5804E-03     29.4392E-03
            2711               1     83.0120E-03     85.0008E-03     28.8915E-03     29.0635E-03
            2712               1     88.7571E-03     90.6645E-03     29.7842E-03     29.4963E-03
            2713               1     110.532E-03     111.753E-03     28.1947E-03     28.1399E-03
            2714               1     114.343E-03     114.192E-03     6.76758E-03     7.56708E-03
            2715               1     51.5550E-03     52.7610E-03     25.1521E-03     25.0346E-03
            2716               1     50.5916E-03     52.2893E-03     24.6523E-03     24.7763E-03
            2717               1     51.4051E-03     52.6722E-03     24.8014E-03     24.6729E-03
            2718               1     51.8238E-03     53.4990E-03     24.6065E-03     24.6181E-03
            2719               1     53.0730E-03     54.6907E-03     24.7221E-03     24.6471E-03
            2720               1     54.3499E-03     56.2145E-03     24.8332E-03     24.8258E-03
            2721               1     55.9541E-03     57.8583E-03     25.0191E-03     24.9856E-03
            2722               1     57.7797E-03     59.8127E-03     25.3956E-03     25.3867E-03
            2723               1     59.5635E-03     61.6547E-03     25.6106E-03     25.6013E-03
            2724               1     61.7590E-03     63.9101E-03     26.2063E-03     26.1929E-03
            2725               1     63.6104E-03     65.8302E-03     26.3412E-03     26.3505E-03
            2726               1     66.1986E-03     68.4394E-03     27.1325E-03     27.1052E-03
            2727               1     68.1968E-03     70.5329E-03     26.9931E-03     27.0317E-03
            2728               1     71.6454E-03     73.9738E-03     28.0605E-03     27.9956E-03
            2729               1     74.4960E-03     76.9808E-03     27.3267E-03     27.4229E-03
            2730               1     80.5829E-03     83.0364E-03     29.2550E-03     29.0666E-03
            2731               1     87.5535E-03     90.3405E-03     27.3221E-03     27.5169E-03
            2732               1     102.886E-03     105.690E-03     33.2891E-03     32.6442E-03
            2733               1     145.114E-03     149.390E-03     25.8082E-03     25.6416E-03
            2734               1     78.4367E-03     77.4227E-03     40.7803E-03     41.0096E-03
            2735               1     79.1098E-03     78.1524E-03     38.9206E-03     39.2216E-03
            2736               1     80.9516E-03     79.9281E-03     37.9665E-03     38.0989E-03
            2737               1     82.0980E-03     81.1388E-03     36.3794E-03     36.5274E-03
            2738               1     84.0302E-03     83.1182E-03     35.3739E-03     35.4501E-03
            2739               1     85.3787E-03     84.5011E-03     33.8341E-03     33.9077E-03
            2740               1     87.4216E-03     86.5905E-03     32.7879E-03     32.8284E-03
            2741               1     88.6832E-03     87.8635E-03     31.0426E-03     31.0797E-03
            2742               1     90.6356E-03     89.8440E-03     29.8059E-03     29.8262E-03
            2743               1     91.4737E-03     90.6773E-03     27.5547E-03     27.5743E-03
            2744               1     92.9885E-03     92.1995E-03     25.8929E-03     25.8985E-03
            2745               1     93.0052E-03     92.1915E-03     22.7933E-03     22.8011E-03
            2746               1     93.5769E-03     92.7211E-03     20.4066E-03     20.3843E-03
            2747               1     92.3147E-03     91.3636E-03     16.0989E-03     16.0739E-03
            2748               1     91.3255E-03     90.1763E-03     12.6630E-03     12.5574E-03
            2749               1     88.2753E-03     86.7545E-03     6.74291E-03     6.57580E-03
            2750               1     85.3451E-03     83.1012E-03     2.03707E-03     1.63274E-03
            2751               1     80.0631E-03     76.5379E-03    -6.49476E-03    -7.34817E-03
            2752               1     78.2445E-03     71.5683E-03    -11.2356E-03    -14.4542E-03
            2753               1     74.6858E-03     75.0275E-03     37.9641E-03     38.5208E-03
            2754               1     76.4330E-03     76.5598E-03     36.8398E-03     37.2940E-03
            2755               1     78.3296E-03     78.2292E-03     35.4529E-03     35.8642E-03
            2756               1     80.5899E-03     80.3526E-03     34.5907E-03     34.8555E-03
            2757               1     82.4750E-03     82.1729E-03     33.3104E-03     33.5484E-03
            2758               1     84.9576E-03     84.5947E-03     32.4858E-03     32.6303E-03
            2759               1     86.8233E-03     86.4482E-03     31.1320E-03     31.2601E-03
            2760               1     89.4516E-03     89.0466E-03     30.2251E-03     30.2998E-03
            2761               1     91.1438E-03     90.7393E-03     28.5614E-03     28.6270E-03
            2762               1     93.7409E-03     93.3100E-03     27.4045E-03     27.4395E-03
            2763               1     95.0031E-03     94.5733E-03     25.1486E-03     25.1765E-03
            2764               1     97.2276E-03     96.7355E-03     23.5224E-03     23.5118E-03
            2765               1     97.6861E-03     97.1837E-03     20.3611E-03     20.3365E-03
            2766               1     98.9495E-03     98.2945E-03     17.9981E-03     17.8702E-03
            2767               1     98.0091E-03     97.2872E-03     13.6890E-03     13.4915E-03
            2768               1     97.5853E-03     96.5959E-03     10.3495E-03     9.86738E-03
            2769               1     93.8486E-03     92.8173E-03     4.92694E-03     4.14154E-03
            2770               1     91.6020E-03     90.6677E-03     604.611E-06    -1.30386E-03
            2771               1     75.8308E-03     81.5371E-03    -4.32882E-03    -5.44874E-03
            2772               1     72.2682E-03     73.2590E-03     36.3797E-03     36.7421E-03
            2773               1     74.4603E-03     75.0855E-03     34.8974E-03     35.2231E-03
            2774               1     76.3452E-03     76.9251E-03     33.6561E-03     34.0071E-03
            2775               1     78.7916E-03     79.1524E-03     32.5668E-03     32.8833E-03
            2776               1     81.4929E-03     81.7261E-03     31.8377E-03     32.0642E-03
            2777               1     83.9355E-03     84.0915E-03     30.8538E-03     31.0571E-03
            2778               1     87.0164E-03     87.0757E-03     30.2334E-03     30.3588E-03
            2779               1     89.4035E-03     89.4455E-03     29.1242E-03     29.2364E-03
            2780               1     92.7249E-03     92.7019E-03     28.4199E-03     28.4843E-03
            2781               1     94.9173E-03     94.9007E-03     26.9493E-03     27.0015E-03
            2782               1     98.2906E-03     98.2043E-03     25.9863E-03     26.0038E-03
            2783               1     100.009E-03     99.9563E-03     23.8615E-03     23.8623E-03
            2784               1     102.979E-03     102.807E-03     22.4064E-03     22.3348E-03
            2785               1     103.707E-03     103.622E-03     19.3198E-03     19.2187E-03
            2786               1     105.310E-03     105.085E-03     17.0390E-03     16.7332E-03
            2787               1     103.917E-03     103.982E-03     12.9471E-03     12.5884E-03
            2788               1     102.585E-03     102.823E-03     9.38838E-03     8.51052E-03
            2789               1     95.4211E-03     98.1799E-03     4.88322E-03     4.63212E-03
            2790               1     86.7097E-03     87.3200E-03    -3.33397E-03    -2.59707E-03
            2791               1     72.9089E-03     73.2836E-03     35.9856E-03     35.5760E-03
            2792               1     72.5853E-03     73.6595E-03     33.2524E-03     33.4254E-03
            2793               1     74.9723E-03     75.7975E-03     32.0426E-03     32.1783E-03
            2794               1     77.3197E-03     78.1574E-03     31.0139E-03     31.2300E-03
            2795               1     80.1761E-03     80.8659E-03     30.2780E-03     30.4668E-03
            2796               1     83.4208E-03     83.9882E-03     29.7859E-03     29.9258E-03
            2797               1     86.3498E-03     86.8719E-03     29.1374E-03     29.2678E-03
            2798               1     90.0737E-03     90.4907E-03     28.7737E-03     28.8506E-03
            2799               1     92.9576E-03     93.3725E-03     27.9780E-03     28.0461E-03
            2800               1     97.0109E-03     97.3438E-03     27.5420E-03     27.5785E-03
            2801               1     99.6537E-03     100.026E-03     26.3494E-03     26.3695E-03
            2802               1     103.800E-03     104.068E-03     25.6500E-03     25.6357E-03
            2803               1     105.787E-03     106.193E-03     23.6804E-03     23.6550E-03
            2804               1     109.236E-03     109.505E-03     22.3610E-03     22.2267E-03
            2805               1     109.714E-03     110.365E-03     19.1995E-03     19.1170E-03
            2806               1     110.543E-03     111.170E-03     16.5689E-03     16.2061E-03
            2807               1     107.609E-03     109.476E-03     12.0897E-03     12.1416E-03
            2808               1     102.446E-03     103.768E-03     6.37549E-03     6.51949E-03
            2809               1     96.3806E-03     98.7969E-03    -1.74663E-03    -2.02925E-03
            2810               1     71.6260E-03     72.2575E-03     34.1222E-03     33.8157E-03
            2811               1     72.1918E-03     73.0081E-03     32.1744E-03     31.8948E-03
            2812               1     73.2955E-03     74.4799E-03     30.3673E-03     30.4186E-03
            2813               1     76.0416E-03     77.1255E-03     29.6298E-03     29.6628E-03
            2814               1     79.0381E-03     80.0586E-03     29.0077E-03     29.0869E-03
            2815               1     82.2766E-03     83.2587E-03     28.6680E-03     28.7557E-03
            2816               1     86.1127E-03     86.9625E-03     28.4874E-03     28.5373E-03
            2817               1     89.4777E-03     90.3262E-03     28.2095E-03     28.2681E-03
            2818               1     93.8249E-03     94.5743E-03     28.1378E-03     28.1678E-03
            2819               1     97.1321E-03     97.9092E-03     27.7127E-03     27.7336E-03
            2820               1     101.884E-03     102.572E-03     27.5751E-03     27.5900E-03
            2821               1     104.831E-03     105.631E-03     26.6810E-03     26.6777E-03
            2822               1     109.658E-03     110.330E-03     26.2059E-03     26.1862E-03
            2823               1     111.595E-03     112.613E-03     24.1870E-03     24.2053E-03
            2824               1     115.038E-03     115.899E-03     22.6582E-03     22.5746E-03
            2825               1     114.757E-03     116.447E-03     18.6736E-03     18.8560E-03
            2826               1     113.595E-03     115.038E-03     14.5537E-03     14.6529E-03
            2827               1     110.297E-03     112.494E-03     7.58508E-03     7.81854E-03
            2828               1     105.704E-03     108.061E-03    -972.034E-06    -315.849E-06
            2829               1     71.0149E-03     71.5455E-03     32.5986E-03     32.0966E-03
            2830               1     70.4368E-03     71.6091E-03     30.1078E-03     29.9551E-03
            2831               1     72.2510E-03     73.4612E-03     29.1017E-03     28.8772E-03
            2832               1     74.4769E-03     75.7808E-03     28.0934E-03     28.0430E-03
            2833               1     77.6438E-03     78.9879E-03     27.8863E-03     27.8557E-03
            2834               1     81.3048E-03     82.5192E-03     27.7124E-03     27.6832E-03
            2835               1     84.9182E-03     86.1688E-03     27.7733E-03     27.7834E-03
            2836               1     89.2730E-03     90.4091E-03     27.9008E-03     27.8879E-03
            2837               1     93.0107E-03     94.1774E-03     28.0224E-03     28.0232E-03
            2838               1     97.8964E-03     98.9849E-03     28.2367E-03     28.2425E-03
            2839               1     101.525E-03     102.682E-03     28.2156E-03     28.2029E-03
            2840               1     106.924E-03     107.989E-03     28.3425E-03     28.3670E-03
            2841               1     110.014E-03     111.306E-03     27.6671E-03     27.6802E-03
            2842               1     115.534E-03     116.647E-03     27.2420E-03     27.2916E-03
            2843               1     117.190E-03     118.919E-03     24.5898E-03     24.7747E-03
            2844               1     120.403E-03     121.821E-03     22.1990E-03     22.3546E-03
            2845               1     119.765E-03     121.954E-03     15.9882E-03     16.4342E-03
            2846               1     117.825E-03     120.002E-03     9.56576E-03     9.97656E-03
            2847               1     116.761E-03     118.420E-03     229.512E-06     621.727E-06
            2848               1     68.6327E-03     69.8744E-03     29.8682E-03     29.7365E-03
            2849               1     69.2438E-03     70.4410E-03     28.5441E-03     28.1890E-03
            2850               1     70.3162E-03     71.7059E-03     27.1232E-03     26.9462E-03
            2851               1     72.9337E-03     74.5193E-03     26.9118E-03     26.7470E-03
            2852               1     76.1706E-03     77.6175E-03     26.6327E-03     26.4807E-03
            2853               1     79.7479E-03     81.3333E-03     26.8637E-03     26.7935E-03
            2854               1     83.9124E-03     85.3679E-03     27.0551E-03     26.9617E-03
            2855               1     87.8539E-03     89.3820E-03     27.4985E-03     27.4584E-03
            2856               1     92.5812E-03     94.0364E-03     27.8818E-03     27.8443E-03
            2857               1     96.6178E-03     98.1223E-03     28.4244E-03     28.3880E-03
            2858               1     101.935E-03     103.390E-03     28.8740E-03     28.8898E-03
            2859               1     105.821E-03     107.384E-03     29.2705E-03     29.2447E-03
            2860               1     111.918E-03     113.379E-03     29.5629E-03     29.6495E-03
            2861               1     115.137E-03     116.938E-03     28.9539E-03     29.0202E-03
            2862               1     121.916E-03     123.418E-03     28.3434E-03     28.5568E-03
            2863               1     123.520E-03     125.760E-03     24.0742E-03     24.4535E-03
            2864               1     127.193E-03     129.081E-03     20.1263E-03     20.4990E-03
            2865               1     127.546E-03     129.644E-03     10.8567E-03     11.5210E-03
            2866               1     125.458E-03     128.398E-03     1.89828E-03     2.33571E-03
            2867               1     67.1629E-03     68.3254E-03     27.8041E-03     27.5043E-03
            2868               1     66.6514E-03     68.1724E-03     25.8822E-03     25.7549E-03
            2869               1     68.4422E-03     70.2247E-03     25.7070E-03     25.5003E-03
            2870               1     71.1347E-03     72.6860E-03     25.3547E-03     25.0901E-03
            2871               1     74.3876E-03     76.2261E-03     25.6443E-03     25.4982E-03
            2872               1     78.2390E-03     79.9190E-03     25.8282E-03     25.6344E-03
            2873               1     82.1649E-03     84.0052E-03     26.4097E-03     26.3179E-03
            2874               1     86.5954E-03     88.3660E-03     26.8348E-03     26.7322E-03
            2875               1     90.7983E-03     92.6444E-03     27.6494E-03     27.5851E-03
            2876               1     95.7271E-03     97.5512E-03     28.2079E-03     28.1832E-03
            2877               1     100.029E-03     101.903E-03     29.1931E-03     29.1380E-03
            2878               1     105.701E-03     107.553E-03     29.7856E-03     29.8461E-03
            2879               1     109.932E-03     111.903E-03     30.6418E-03     30.6120E-03
            2880               1     117.052E-03     118.894E-03     30.9833E-03     31.1764E-03
            2881               1     120.760E-03     122.969E-03     30.4117E-03     30.5103E-03
            2882               1     130.645E-03     132.384E-03     29.5680E-03     29.9436E-03
            2883               1     132.984E-03     135.479E-03     22.2840E-03     22.9101E-03
            2884               1     137.252E-03     139.612E-03     15.8763E-03     16.2591E-03
            2885               1     139.045E-03     140.516E-03     3.22423E-03     4.08098E-03
            2886               1     63.5166E-03     65.4132E-03     24.1335E-03     24.2794E-03
            2887               1     64.1765E-03     66.2928E-03     24.1290E-03     24.0835E-03
            2888               1     66.4202E-03     68.0142E-03     23.8903E-03     23.5735E-03
            2889               1     69.1325E-03     71.1780E-03     24.1914E-03     24.0425E-03
            2890               1     72.6335E-03     74.4403E-03     24.3896E-03     24.1087E-03
            2891               1     76.3438E-03     78.4362E-03     24.9817E-03     24.8548E-03
            2892               1     80.4264E-03     82.4512E-03     25.3840E-03     25.2169E-03
            2893               1     84.6029E-03     86.7701E-03     26.2629E-03     26.1765E-03
            2894               1     89.0826E-03     91.2480E-03     26.8081E-03     26.7366E-03
            2895               1     93.5048E-03     95.7274E-03     27.9864E-03     27.9189E-03
            2896               1     98.4750E-03     100.719E-03     28.6202E-03     28.6326E-03
            2897               1     103.119E-03     105.387E-03     30.0839E-03     30.0170E-03
            2898               1     109.120E-03     111.393E-03     30.6910E-03     30.8165E-03
            2899               1     114.087E-03     116.420E-03     32.1993E-03     32.1357E-03
            2900               1     122.869E-03     125.067E-03     32.4998E-03     32.8055E-03
            2901               1     128.082E-03     130.540E-03     32.5701E-03     32.5974E-03
            2902               1     145.056E-03     146.815E-03     31.7711E-03     32.2548E-03
            2903               1     148.949E-03     151.352E-03     18.5224E-03     19.4856E-03
            2904               1     150.347E-03     153.662E-03     7.46071E-03     7.66798E-03
            2905               1     60.1222E-03     62.7719E-03     22.0608E-03     22.3614E-03
            2906               1     62.1985E-03     63.8455E-03     22.2835E-03     22.0056E-03
            2907               1     64.2140E-03     66.4278E-03     22.5662E-03     22.5138E-03
            2908               1     67.3531E-03     69.2252E-03     22.8393E-03     22.5419E-03
            2909               1     70.6930E-03     72.9727E-03     23.3670E-03     23.2534E-03
            2910               1     74.3920E-03     76.6216E-03     23.7204E-03     23.5303E-03
            2911               1     78.3925E-03     80.8490E-03     24.5448E-03     24.4587E-03
            2912               1     82.4537E-03     84.9370E-03     25.0220E-03     24.9267E-03
            2913               1     86.8142E-03     89.4023E-03     26.1719E-03     26.1110E-03
            2914               1     91.1779E-03     93.8071E-03     26.7468E-03     26.7217E-03
            2915               1     95.8527E-03     98.5112E-03     28.2730E-03     28.2149E-03
            2916               1     100.724E-03     103.426E-03     28.8632E-03     28.9124E-03
            2917               1     105.962E-03     108.646E-03     30.8582E-03     30.7783E-03
            2918               1     112.229E-03     114.941E-03     31.3083E-03     31.4791E-03
            2919               1     118.780E-03     121.449E-03     33.9220E-03     33.7813E-03
            2920               1     129.705E-03     132.271E-03     33.9929E-03     34.3576E-03
            2921               1     138.823E-03     141.422E-03     36.8009E-03     36.5866E-03
            2922               1     170.843E-03     172.496E-03     36.1162E-03     36.6072E-03
            2923               1     174.446E-03     175.753E-03     9.92096E-03     11.2235E-03
            2924               1     58.9181E-03     60.5208E-03     20.8115E-03     20.6345E-03
            2925               1     60.0400E-03     62.2559E-03     20.9230E-03     21.0152E-03
            2926               1     62.6366E-03     64.5259E-03     21.2518E-03     21.0807E-03
            2927               1     65.4670E-03     67.8525E-03     21.6563E-03     21.6267E-03
            2928               1     68.6770E-03     71.0935E-03     21.9151E-03     21.8074E-03
            2929               1     72.3756E-03     75.0933E-03     22.6306E-03     22.5916E-03
            2930               1     76.0285E-03     78.8293E-03     23.0087E-03     22.9522E-03
            2931               1     80.2163E-03     83.1755E-03     24.0464E-03     24.0180E-03
            2932               1     84.1362E-03     87.1585E-03     24.5447E-03     24.5225E-03
            2933               1     88.6836E-03     91.7785E-03     25.9323E-03     25.9076E-03
            2934               1     92.8335E-03     95.9686E-03     26.4679E-03     26.4749E-03
            2935               1     97.8960E-03     101.055E-03     28.2868E-03     28.2513E-03
            2936               1     102.542E-03     105.724E-03     28.6996E-03     28.7528E-03
            2937               1     108.815E-03     111.983E-03     31.2182E-03     31.1404E-03
            2938               1     115.019E-03     118.199E-03     31.2284E-03     31.3821E-03
            2939               1     124.645E-03     127.764E-03     35.4610E-03     35.2469E-03
            2940               1     136.509E-03     139.692E-03     34.4103E-03     34.7854E-03
            2941               1     157.256E-03     160.267E-03     44.9711E-03     44.3436E-03
            2942               1     214.692E-03     218.294E-03     36.9164E-03     37.6210E-03
            2943               1     94.9025E-03     93.4437E-03     45.4538E-03     45.7783E-03
            2944               1     97.2698E-03     95.9744E-03     43.1328E-03     43.4827E-03
            2945               1     100.885E-03     99.7542E-03     41.8785E-03     42.0818E-03
            2946               1     103.753E-03     102.803E-03     39.8253E-03     40.0147E-03
            2947               1     107.559E-03     106.804E-03     38.5238E-03     38.6430E-03
            2948               1     110.648E-03     110.019E-03     36.4562E-03     36.5562E-03
            2949               1     114.601E-03     114.108E-03     35.0767E-03     35.1398E-03
            2950               1     117.594E-03     117.177E-03     32.6800E-03     32.7324E-03
            2951               1     121.466E-03     121.130E-03     31.0373E-03     31.0674E-03
            2952               1     124.022E-03     123.729E-03     27.9344E-03     27.9644E-03
            2953               1     127.476E-03     127.216E-03     25.7583E-03     25.7637E-03
            2954               1     129.236E-03     128.993E-03     21.5076E-03     21.5255E-03
            2955               1     131.846E-03     131.553E-03     18.4657E-03     18.4257E-03
            2956               1     132.487E-03     132.136E-03     12.5604E-03     12.5477E-03
            2957               1     133.922E-03     133.301E-03     8.31795E-03     8.15159E-03
            2958               1     133.341E-03     132.362E-03     21.6464E-06    -134.472E-06
            2959               1     134.297E-03     132.402E-03    -5.53964E-03    -6.12639E-03
            2960               1     133.676E-03     130.398E-03    -18.5400E-03    -19.4463E-03
            2961               1     146.741E-03     139.359E-03    -22.5052E-03    -26.6421E-03
            2962               1     90.4986E-03     90.9556E-03     41.6862E-03     42.3028E-03
            2963               1     94.1829E-03     94.5613E-03     40.2466E-03     40.8722E-03
            2964               1     98.0425E-03     98.1632E-03     38.4689E-03     38.9888E-03
            2965               1     102.301E-03     102.385E-03     37.3410E-03     37.7374E-03
            2966               1     106.091E-03     106.127E-03     35.6376E-03     35.9578E-03
            2967               1     110.628E-03     110.666E-03     34.5373E-03     34.7601E-03
            2968               1     114.368E-03     114.424E-03     32.6737E-03     32.8520E-03
            2969               1     119.100E-03     119.163E-03     31.4429E-03     31.5574E-03
            2970               1     122.640E-03     122.737E-03     29.1206E-03     29.2159E-03
            2971               1     127.404E-03     127.487E-03     27.5584E-03     27.6074E-03
            2972               1     130.502E-03     130.625E-03     24.4173E-03     24.4654E-03
            2973               1     135.014E-03     135.054E-03     22.2724E-03     22.2479E-03
            2974               1     137.343E-03     137.425E-03     17.9043E-03     17.8927E-03
            2975               1     141.216E-03     141.077E-03     14.8829E-03     14.6851E-03
            2976               1     142.290E-03     142.167E-03     8.95366E-03     8.74287E-03
            2977               1     145.605E-03     145.080E-03     4.81597E-03     4.13563E-03
            2978               1     144.174E-03     143.788E-03    -2.53293E-03    -3.45198E-03
            2979               1     150.828E-03     150.399E-03    -7.70665E-03    -10.1767E-03
            2980               1     134.406E-03     141.753E-03    -7.66391E-03    -9.35079E-03
            2981               1     87.3507E-03     88.9482E-03     39.2458E-03     39.6589E-03
            2982               1     91.8255E-03     93.0434E-03     37.4176E-03     37.8302E-03
            2983               1     95.9305E-03     97.0994E-03     35.9417E-03     36.4490E-03
            2984               1     100.479E-03     101.381E-03     34.5270E-03     34.9524E-03
            2985               1     105.370E-03     106.149E-03     33.5809E-03     33.9261E-03
            2986               1     109.829E-03     110.516E-03     32.2281E-03     32.5088E-03
            2987               1     115.140E-03     115.734E-03     31.3684E-03     31.5622E-03
            2988               1     119.493E-03     120.077E-03     29.7939E-03     29.9526E-03
            2989               1     125.126E-03     125.639E-03     28.7972E-03     28.8934E-03
            2990               1     129.251E-03     129.797E-03     26.7065E-03     26.7867E-03
            2991               1     135.074E-03     135.521E-03     25.3699E-03     25.3885E-03
            2992               1     138.719E-03     139.255E-03     22.4052E-03     22.4218E-03
            2993               1     144.398E-03     144.744E-03     20.4675E-03     20.3498E-03
            2994               1     147.105E-03     147.647E-03     16.3055E-03     16.1956E-03
            2995               1     152.048E-03     152.332E-03     13.4205E-03     12.9716E-03
            2996               1     152.747E-03     153.537E-03     8.35452E-03     7.90543E-03
            2997               1     156.553E-03     157.399E-03     4.14987E-03     2.95337E-03
            2998               1     151.359E-03     155.292E-03     1.69107E-03     1.15578E-03
            2999               1     142.185E-03     143.701E-03    -5.86038E-03    -4.99952E-03
            3000               1     87.3555E-03     88.6611E-03     37.9004E-03     37.4651E-03
            3001               1     89.6317E-03     91.5480E-03     34.9774E-03     35.2207E-03
            3002               1     94.3471E-03     95.9998E-03     33.5254E-03     33.7413E-03
            3003               1     99.0724E-03     100.655E-03     32.3384E-03     32.6670E-03
            3004               1     104.096E-03     105.488E-03     31.3624E-03     31.6296E-03
            3005               1     109.678E-03     110.897E-03     30.7122E-03     30.9301E-03
            3006               1     114.684E-03     115.837E-03     29.7758E-03     29.9583E-03
            3007               1     120.803E-03     121.818E-03     29.2275E-03     29.3464E-03
            3008               1     125.712E-03     126.730E-03     28.0550E-03     28.1540E-03
            3009               1     132.295E-03     133.192E-03     27.3862E-03     27.4370E-03
            3010               1     136.936E-03     137.913E-03     25.6839E-03     25.7216E-03
            3011               1     143.842E-03     144.648E-03     24.6820E-03     24.6503E-03
            3012               1     147.856E-03     148.901E-03     22.0511E-03     22.0268E-03
            3013               1     154.438E-03     155.234E-03     20.3431E-03     20.1321E-03
            3014               1     157.065E-03     158.446E-03     16.5754E-03     16.4505E-03
            3015               1     161.558E-03     162.787E-03     13.5265E-03     12.9910E-03
            3016               1     160.912E-03     163.738E-03     9.70380E-03     9.62129E-03
            3017               1     157.321E-03     159.462E-03     4.15191E-03     4.24001E-03
            3018               1     151.479E-03     154.803E-03    -2.91002E-03    -3.45930E-03
            3019               1     85.7829E-03     87.3508E-03     35.1178E-03     34.7704E-03
            3020               1     88.8421E-03     90.7236E-03     33.0241E-03     32.7621E-03
            3021               1     92.5595E-03     94.6785E-03     31.1266E-03     31.2313E-03
            3022               1     97.6373E-03     99.6328E-03     30.2659E-03     30.3453E-03
            3023               1     103.094E-03     104.909E-03     29.5636E-03     29.6969E-03
            3024               1     108.521E-03     110.260E-03     29.0903E-03     29.2149E-03
            3025               1     114.804E-03     116.343E-03     28.8226E-03     28.9060E-03
            3026               1     120.279E-03     121.799E-03     28.3759E-03     28.4576E-03
            3027               1     127.175E-03     128.544E-03     28.1977E-03     28.2435E-03
            3028               1     132.545E-03     133.960E-03     27.5462E-03     27.5805E-03
            3029               1     140.049E-03     141.310E-03     27.2711E-03     27.2858E-03
            3030               1     145.060E-03     146.509E-03     26.0750E-03     26.0769E-03
            3031               1     152.945E-03     154.164E-03     25.4202E-03     25.3756E-03
            3032               1     157.056E-03     158.792E-03     23.0713E-03     23.0784E-03
            3033               1     163.777E-03     165.217E-03     21.3276E-03     21.1745E-03
            3034               1     165.844E-03     168.404E-03     17.4096E-03     17.5460E-03
            3035               1     166.898E-03     169.078E-03     13.2495E-03     13.2847E-03
            3036               1     165.090E-03     168.225E-03     6.81937E-03     6.95201E-03
            3037               1     159.805E-03     163.393E-03    -1.64381E-03    -936.425E-06
            3038               1     84.7719E-03     86.3821E-03     32.5986E-03     32.0966E-03
            3039               1     86.8985E-03     89.1182E-03     30.1078E-03     29.9551E-03
            3040               1     91.1907E-03     93.4928E-03     29.1017E-03     28.8772E-03
            3041               1     96.0183E-03     98.2425E-03     28.0934E-03     28.0430E-03
            3042               1     101.479E-03     103.719E-03     27.8863E-03     27.8557E-03
            3043               1     107.637E-03     109.636E-03     27.7124E-03     27.6832E-03
            3044               1     113.440E-03     115.446E-03     27.7733E-03     27.7834E-03
            3045               1     120.328E-03     122.153E-03     27.9008E-03     27.8879E-03
            3046               1     126.189E-03     128.040E-03     28.0224E-03     28.0232E-03
            3047               1     133.762E-03     135.473E-03     28.2367E-03     28.2425E-03
            3048               1     139.485E-03     141.306E-03     28.2156E-03     28.2029E-03
            3049               1     147.839E-03     149.483E-03     28.3425E-03     28.3670E-03
            3050               1     153.076E-03     155.068E-03     27.6671E-03     27.6802E-03
            3051               1     161.854E-03     163.538E-03     27.2420E-03     27.2916E-03
            3052               1     165.842E-03     168.380E-03     24.5898E-03     24.7747E-03
            3053               1     171.863E-03     173.934E-03     22.1990E-03     22.3546E-03
            3054               1     173.287E-03     176.406E-03     15.9882E-03     16.4342E-03
            3055               1     172.057E-03     175.191E-03     9.56576E-03     9.97657E-03
            3056               1     171.415E-03     173.846E-03     229.515E-06     621.730E-06
            3057               1     82.1117E-03     84.4564E-03     28.8725E-03     28.7818E-03
            3058               1     85.3276E-03     87.6934E-03     27.6944E-03     27.3217E-03
            3059               1     89.1017E-03     91.4806E-03     26.3640E-03     26.1335E-03
            3060               1     94.0920E-03     96.6771E-03     26.2757E-03     26.0645E-03
            3061               1     99.8745E-03     102.180E-03     26.0769E-03     25.8707E-03
            3062               1     105.713E-03     108.130E-03     26.4414E-03     26.3342E-03
            3063               1     112.387E-03     114.596E-03     26.7199E-03     26.5930E-03
            3064               1     118.509E-03     120.772E-03     27.3321E-03     27.2689E-03
            3065               1     125.830E-03     127.963E-03     27.8219E-03     27.7686E-03
            3066               1     131.992E-03     134.189E-03     28.5910E-03     28.5411E-03
            3067               1     140.104E-03     142.182E-03     29.1780E-03     29.1940E-03
            3068               1     146.112E-03     148.368E-03     29.8765E-03     29.8455E-03
            3069               1     155.330E-03     157.378E-03     30.3486E-03     30.4601E-03
            3070               1     160.766E-03     163.317E-03     30.0696E-03     30.1471E-03
            3071               1     170.926E-03     173.027E-03     29.6740E-03     29.9570E-03
            3072               1     174.842E-03     177.965E-03     25.3382E-03     25.7635E-03
            3073               1     180.726E-03     183.359E-03     21.4305E-03     21.8672E-03
            3074               1     182.422E-03     185.462E-03     11.6225E-03     12.3876E-03
            3075               1     179.558E-03     183.732E-03     2.57006E-03     2.95629E-03
            3076               1     80.3082E-03     82.6438E-03     25.8893E-03     25.6152E-03
            3077               1     82.5886E-03     85.0795E-03     24.1572E-03     23.9597E-03
            3078               1     86.7554E-03     89.5618E-03     24.2243E-03     23.9374E-03
            3079               1     92.0183E-03     94.4442E-03     24.0302E-03     23.6531E-03
            3080               1     97.5830E-03     100.288E-03     24.5599E-03     24.3354E-03
            3081               1     103.920E-03     106.391E-03     24.9019E-03     24.6301E-03
            3082               1     110.078E-03     112.690E-03     25.7712E-03     25.6274E-03
            3083               1     117.010E-03     119.507E-03     26.3810E-03     26.2364E-03
            3084               1     123.373E-03     125.943E-03     27.5725E-03     27.4772E-03
            3085               1     130.915E-03     133.415E-03     28.3637E-03     28.3247E-03
            3086               1     137.337E-03     139.916E-03     29.8587E-03     29.7860E-03
            3087               1     145.861E-03     148.343E-03     30.7535E-03     30.8315E-03
            3088               1     152.231E-03     154.919E-03     32.2711E-03     32.2402E-03
            3089               1     162.627E-03     165.064E-03     33.0013E-03     33.2711E-03
            3090               1     168.543E-03     171.531E-03     33.0358E-03     33.1769E-03
            3091               1     182.261E-03     184.621E-03     32.6104E-03     33.1587E-03
            3092               1     186.696E-03     190.161E-03     24.6699E-03     25.4304E-03
            3093               1     192.348E-03     195.538E-03     18.0999E-03     18.5386E-03
            3094               1     194.144E-03     196.523E-03     4.38762E-03     5.51104E-03
            3095               1     76.7174E-03     79.4639E-03     21.2674E-03     21.3626E-03
            3096               1     79.6171E-03     82.6565E-03     21.6087E-03     21.4764E-03
            3097               1     84.3947E-03     86.7883E-03     21.6046E-03     21.1316E-03
            3098               1     89.4333E-03     92.2942E-03     22.2312E-03     21.9734E-03
            3099               1     95.3847E-03     97.9658E-03     22.6465E-03     22.2468E-03
            3100               1     101.370E-03     104.232E-03     23.6074E-03     23.4032E-03
            3101               1     107.876E-03     110.650E-03     24.2490E-03     24.0135E-03
            3102               1     114.246E-03     117.159E-03     25.5933E-03     25.4603E-03
            3103               1     121.179E-03     124.067E-03     26.4308E-03     26.3275E-03
            3104               1     127.730E-03     130.685E-03     28.2292E-03     28.1336E-03
            3105               1     135.271E-03     138.204E-03     29.2366E-03     29.2478E-03
            3106               1     142.023E-03     145.014E-03     31.5402E-03     31.4574E-03
            3107               1     150.873E-03     153.788E-03     32.6300E-03     32.8015E-03
            3108               1     157.983E-03     161.040E-03     35.2137E-03     35.1588E-03
            3109               1     170.296E-03     173.079E-03     36.1183E-03     36.5671E-03
            3110               1     177.658E-03     180.880E-03     37.1627E-03     37.2804E-03
            3111               1     199.874E-03     202.230E-03     37.0097E-03     37.8119E-03
            3112               1     205.215E-03     208.792E-03     21.7146E-03     22.9619E-03
            3113               1     205.825E-03     210.049E-03     9.98713E-03     10.0704E-03
            3114               1     72.8539E-03     76.1155E-03     18.3387E-03     18.5794E-03
            3115               1     77.2876E-03     79.5054E-03     18.8767E-03     18.4275E-03
            3116               1     81.5991E-03     84.4380E-03     19.5502E-03     19.3892E-03
            3117               1     87.1239E-03     89.6614E-03     20.0890E-03     19.6600E-03
            3118               1     92.7687E-03     95.7463E-03     21.0398E-03     20.8440E-03
            3119               1     98.8272E-03     101.783E-03     21.6689E-03     21.4005E-03
            3120               1     105.048E-03     108.248E-03     23.0031E-03     22.8668E-03
            3121               1     111.439E-03     114.674E-03     23.8043E-03     23.6691E-03
            3122               1     117.938E-03     121.288E-03     25.6126E-03     25.5221E-03
            3123               1     124.643E-03     128.021E-03     26.5929E-03     26.5537E-03
            3124               1     131.411E-03     134.830E-03     29.0043E-03     28.9260E-03
            3125               1     138.726E-03     142.147E-03     30.1131E-03     30.1763E-03
            3126               1     146.073E-03     149.497E-03     33.3149E-03     33.2221E-03
            3127               1     155.110E-03     158.474E-03     34.4234E-03     34.6642E-03
            3128               1     163.882E-03     167.243E-03     38.6574E-03     38.5300E-03
            3129               1     178.657E-03     181.755E-03     39.5265E-03     40.0893E-03
            3130               1     190.128E-03     193.363E-03     44.2608E-03     44.1801E-03
            3131               1     230.824E-03     232.881E-03     44.4276E-03     45.4801E-03
            3132               1     233.022E-03     235.969E-03     13.2561E-03     15.1256E-03
            3133               1     71.2081E-03     72.8620E-03     16.1379E-03     15.8658E-03
            3134               1     74.6040E-03     77.0344E-03     16.7108E-03     16.7541E-03
            3135               1     79.4793E-03     81.7591E-03     17.3399E-03     17.0978E-03
            3136               1     84.6269E-03     87.5345E-03     18.2104E-03     18.1393E-03
            3137               1     90.1493E-03     93.1915E-03     18.7651E-03     18.6145E-03
            3138               1     96.0808E-03     99.4986E-03     20.0085E-03     19.9431E-03
            3139               1     101.978E-03     105.526E-03     20.7199E-03     20.6407E-03
            3140               1     108.301E-03     112.042E-03     22.4089E-03     22.3652E-03
            3141               1     114.396E-03     118.214E-03     23.3133E-03     23.2813E-03
            3142               1     121.011E-03     124.916E-03     25.5526E-03     25.5175E-03
            3143               1     127.310E-03     131.244E-03     26.6024E-03     26.6097E-03
            3144               1     134.435E-03     138.398E-03     29.5725E-03     29.5269E-03
            3145               1     141.297E-03     145.239E-03     30.6405E-03     30.7114E-03
            3146               1     149.750E-03     153.673E-03     34.7568E-03     34.6666E-03
            3147               1     158.470E-03     162.302E-03     35.5734E-03     35.7879E-03
            3148               1     170.730E-03     174.456E-03     42.1823E-03     41.9572E-03
            3149               1     186.279E-03     189.842E-03     41.9870E-03     42.5445E-03
            3150               1     211.574E-03     214.737E-03     57.0164E-03     56.4417E-03
            3151               1     283.219E-03     286.110E-03     48.1861E-03     49.8089E-03
            3152               1     106.030E-03     104.244E-03     44.2646E-03     44.6419E-03
            3153               1     110.870E-03     109.640E-03     41.9848E-03     42.4101E-03
            3154               1     116.409E-03     115.388E-03     40.5769E-03     40.7678E-03
            3155               1     121.970E-03     121.321E-03     39.0170E-03     39.2096E-03
            3156               1     127.895E-03     127.354E-03     37.8255E-03     37.9015E-03
            3157               1     133.954E-03     133.581E-03     36.5662E-03     36.6290E-03
            3158               1     140.008E-03     139.646E-03     35.2701E-03     35.2909E-03
            3159               1     146.213E-03     145.930E-03     33.9376E-03     33.9567E-03
            3160               1     152.056E-03     151.735E-03     32.1603E-03     32.1607E-03
            3161               1     158.044E-03     157.802E-03     30.3695E-03     30.3876E-03
            3162               1     163.293E-03     162.994E-03     27.6104E-03     27.6082E-03
            3163               1     168.598E-03     168.422E-03     24.8272E-03     24.8572E-03
            3164               1     172.834E-03     172.586E-03     20.3820E-03     20.3831E-03
            3165               1     176.590E-03     176.488E-03     15.6643E-03     15.6849E-03
            3166               1     179.617E-03     179.335E-03     8.88591E-03     8.84166E-03
            3167               1     180.653E-03     180.353E-03     487.035E-06     392.026E-06
            3168               1     183.804E-03     182.727E-03    -8.27493E-03    -8.69599E-03
            3169               1     183.475E-03     181.479E-03    -24.4747E-03    -25.1759E-03
            3170               1     206.864E-03     200.823E-03    -29.9334E-03    -33.9058E-03
            3171               1     101.209E-03     102.317E-03     39.3883E-03     40.2178E-03
            3172               1     106.975E-03     107.712E-03     37.8063E-03     38.4524E-03
            3173               1     113.290E-03     113.896E-03     36.3901E-03     36.9751E-03
            3174               1     119.542E-03     120.024E-03     35.4722E-03     35.7907E-03
            3175               1     126.109E-03     126.530E-03     34.4559E-03     34.6907E-03
            3176               1     132.561E-03     132.976E-03     33.5662E-03     33.6846E-03
            3177               1     139.402E-03     139.808E-03     32.6073E-03     32.6768E-03
            3178               1     145.924E-03     146.326E-03     31.4549E-03     31.4798E-03
            3179               1     152.913E-03     153.351E-03     30.2600E-03     30.2970E-03
            3180               1     159.322E-03     159.732E-03     28.5421E-03     28.5339E-03
            3181               1     166.317E-03     166.788E-03     26.8070E-03     26.8662E-03
            3182               1     172.447E-03     172.878E-03     24.0306E-03     24.0212E-03
            3183               1     179.048E-03     179.512E-03     21.2982E-03     21.3621E-03
            3184               1     184.943E-03     185.362E-03     16.6224E-03     16.6072E-03
            3185               1     189.581E-03     189.957E-03     12.0586E-03     11.9572E-03
            3186               1     196.274E-03     196.460E-03     4.79676E-03     4.54226E-03
            3187               1     195.415E-03     195.846E-03    -2.35294E-03    -3.16449E-03
            3188               1     209.586E-03     209.580E-03    -11.2473E-03    -13.1605E-03
            3189               1     188.674E-03     196.506E-03    -6.42172E-03    -8.37115E-03
            3190               1     96.7777E-03     99.2489E-03     35.1977E-03     35.5603E-03
            3191               1     103.549E-03     105.843E-03     33.5686E-03     34.1559E-03
            3192               1     109.951E-03     111.846E-03     32.5564E-03     32.9591E-03
            3193               1     117.108E-03     118.610E-03     31.7745E-03     32.1186E-03
            3194               1     123.906E-03     125.319E-03     31.2647E-03     31.4694E-03
            3195               1     131.302E-03     132.504E-03     30.7203E-03     30.8374E-03
            3196               1     138.303E-03     139.505E-03     30.1448E-03     30.2118E-03
            3197               1     145.919E-03     147.068E-03     29.5272E-03     29.5701E-03
            3198               1     153.045E-03     154.188E-03     28.6995E-03     28.6990E-03
            3199               1     160.946E-03     162.106E-03     27.8523E-03     27.9057E-03
            3200               1     168.133E-03     169.269E-03     26.5306E-03     26.5028E-03
            3201               1     176.377E-03     177.514E-03     25.3221E-03     25.4012E-03
            3202               1     183.641E-03     184.784E-03     22.9086E-03     22.8743E-03
            3203               1     191.823E-03     192.872E-03     21.1345E-03     21.1504E-03
            3204               1     199.521E-03     200.709E-03     16.1765E-03     16.1062E-03
            3205               1     204.488E-03     205.771E-03     13.5075E-03     13.1421E-03
            3206               1     213.452E-03     214.977E-03     5.05853E-03     4.60234E-03
            3207               1     207.619E-03     212.338E-03     5.86302E-03     5.03129E-03
            3208               1     196.606E-03     198.858E-03    -4.48339E-03    -3.02397E-03
            3209               1     94.5707E-03     98.0086E-03     31.7163E-03     31.6210E-03
            3210               1     100.026E-03     103.129E-03     29.6308E-03     29.6886E-03
            3211               1     107.235E-03     109.867E-03     28.7856E-03     28.9403E-03
            3212               1     114.125E-03     116.662E-03     28.3939E-03     28.5424E-03
            3213               1     121.999E-03     124.066E-03     28.2168E-03     28.2721E-03
            3214               1     129.304E-03     131.395E-03     28.0720E-03     28.1455E-03
            3215               1     137.344E-03     139.244E-03     27.9598E-03     27.9752E-03
            3216               1     144.888E-03     146.809E-03     27.7977E-03     27.8080E-03
            3217               1     153.194E-03     155.075E-03     27.6297E-03     27.6598E-03
            3218               1     160.934E-03     162.805E-03     27.3762E-03     27.3418E-03
            3219               1     169.747E-03     171.610E-03     27.1813E-03     27.2471E-03
            3220               1     177.669E-03     179.527E-03     26.6187E-03     26.5520E-03
            3221               1     187.340E-03     189.122E-03     26.5215E-03     26.6027E-03
            3222               1     195.396E-03     197.317E-03     24.7325E-03     24.6607E-03
            3223               1     205.855E-03     207.636E-03     24.9022E-03     24.8994E-03
            3224               1     213.559E-03     215.901E-03     18.8568E-03     18.9190E-03
            3225               1     218.388E-03     221.622E-03     19.0597E-03     18.8334E-03
            3226               1     216.598E-03     219.566E-03     8.01138E-03     9.10232E-03
            3227               1     205.588E-03     210.616E-03     1.42663E-03     554.657E-06
            3228               1     92.1293E-03     95.3286E-03     27.2971E-03     26.7088E-03
            3229               1     97.4358E-03     100.834E-03     25.7673E-03     25.4983E-03
            3230               1     103.841E-03     107.289E-03     25.2134E-03     25.0773E-03
            3231               1     111.864E-03     114.691E-03     25.2564E-03     25.0570E-03
            3232               1     119.245E-03     122.201E-03     25.3202E-03     25.2992E-03
            3233               1     127.568E-03     130.203E-03     25.6066E-03     25.5154E-03
            3234               1     135.324E-03     138.041E-03     25.8654E-03     25.8601E-03
            3235               1     143.789E-03     146.404E-03     26.1914E-03     26.1748E-03
            3236               1     151.781E-03     154.418E-03     26.6053E-03     26.5747E-03
            3237               1     160.596E-03     163.213E-03     27.0442E-03     27.0787E-03
            3238               1     168.793E-03     171.398E-03     27.6405E-03     27.5642E-03
            3239               1     178.409E-03     180.976E-03     28.4081E-03     28.4850E-03
            3240               1     186.713E-03     189.322E-03     28.9730E-03     28.8576E-03
            3241               1     198.147E-03     200.623E-03     30.4518E-03     30.5713E-03
            3242               1     205.915E-03     208.732E-03     29.5358E-03     29.5148E-03
            3243               1     220.652E-03     223.316E-03     31.9216E-03     32.1159E-03
            3244               1     224.111E-03     227.702E-03     22.5942E-03     23.5220E-03
            3245               1     226.458E-03     230.414E-03     18.8396E-03     18.6476E-03
            3246               1     220.521E-03     224.165E-03     2.77330E-03     4.69713E-03
            3247               1     88.7449E-03     92.4184E-03     22.0981E-03     21.7648E-03
            3248               1     93.9855E-03     97.8347E-03     21.8223E-03     21.3929E-03
            3249               1     101.568E-03     104.780E-03     22.0249E-03     21.4368E-03
            3250               1     108.681E-03     112.274E-03     22.1030E-03     21.8955E-03
            3251               1     117.070E-03     120.305E-03     22.6699E-03     22.3772E-03
            3252               1     124.853E-03     128.305E-03     23.1111E-03     23.0445E-03
            3253               1     133.349E-03     136.671E-03     23.7686E-03     23.6724E-03
            3254               1     141.408E-03     144.818E-03     24.5187E-03     24.4876E-03
            3255               1     150.043E-03     153.418E-03     25.3380E-03     25.3337E-03
            3256               1     158.278E-03     161.668E-03     26.4952E-03     26.4342E-03
            3257               1     167.321E-03     170.692E-03     27.6754E-03     27.7205E-03
            3258               1     175.680E-03     179.046E-03     29.3811E-03     29.2595E-03
            3259               1     185.887E-03     189.193E-03     31.2488E-03     31.3557E-03
            3260               1     194.115E-03     197.503E-03     33.3960E-03     33.2493E-03
            3261               1     207.804E-03     211.014E-03     36.3283E-03     36.5877E-03
            3262               1     214.444E-03     218.103E-03     37.0419E-03     37.2034E-03
            3263               1     237.893E-03     240.773E-03     39.8139E-03     40.3251E-03
            3264               1     238.990E-03     243.494E-03     22.0954E-03     23.9016E-03
            3265               1     234.430E-03     239.271E-03     10.4871E-03     10.2056E-03
            3266               1     84.6609E-03     88.4871E-03     17.6387E-03     17.3745E-03
            3267               1     91.7915E-03     94.8343E-03     18.4374E-03     17.6427E-03
            3268               1     98.2925E-03     102.068E-03     18.5779E-03     18.2400E-03
            3269               1     106.412E-03     109.979E-03     19.3471E-03     18.8720E-03
            3270               1     114.026E-03     118.043E-03     19.7993E-03     19.6582E-03
            3271               1     122.407E-03     126.363E-03     20.6371E-03     20.4593E-03
            3272               1     130.408E-03     134.559E-03     21.4826E-03     21.4410E-03
            3273               1     138.826E-03     142.951E-03     22.4962E-03     22.4558E-03
            3274               1     146.966E-03     151.158E-03     23.8205E-03     23.7861E-03
            3275               1     155.462E-03     159.634E-03     25.1810E-03     25.1946E-03
            3276               1     163.674E-03     167.865E-03     27.1936E-03     27.1145E-03
            3277               1     172.544E-03     176.701E-03     29.1281E-03     29.1819E-03
            3278               1     180.826E-03     185.000E-03     32.1496E-03     32.0055E-03
            3279               1     191.160E-03     195.247E-03     34.8708E-03     35.0250E-03
            3280               1     199.563E-03     203.724E-03     39.2691E-03     39.1218E-03
            3281               1     215.467E-03     219.290E-03     42.4969E-03     42.9091E-03
            3282               1     224.352E-03     228.555E-03     47.5572E-03     47.6625E-03
            3283               1     267.753E-03     270.345E-03     49.7460E-03     50.7037E-03
            3284               1     264.213E-03     268.339E-03     13.9879E-03     16.4329E-03
            3285               1     83.0174E-03     85.0421E-03     14.5145E-03     14.0368E-03
            3286               1     88.6609E-03     91.9531E-03     14.7315E-03     14.6014E-03
            3287               1     96.1521E-03     99.6717E-03     15.6902E-03     15.3613E-03
            3288               1     103.384E-03     107.724E-03     16.1201E-03     16.0225E-03
            3289               1     111.429E-03     115.930E-03     17.0039E-03     16.8673E-03
            3290               1     119.276E-03     124.125E-03     17.8112E-03     17.7789E-03
            3291               1     127.443E-03     132.317E-03     18.8633E-03     18.8244E-03
            3292               1     135.431E-03     140.431E-03     20.1352E-03     20.1234E-03
            3293               1     143.521E-03     148.491E-03     21.5134E-03     21.5109E-03
            3294               1     151.477E-03     156.512E-03     23.4222E-03     23.3998E-03
            3295               1     159.485E-03     164.467E-03     25.3152E-03     25.3298E-03
            3296               1     167.445E-03     172.509E-03     28.1757E-03     28.1211E-03
            3297               1     175.633E-03     180.608E-03     30.7168E-03     30.7671E-03
            3298               1     184.044E-03     189.132E-03     35.1112E-03     35.0042E-03
            3299               1     193.515E-03     198.422E-03     38.0195E-03     38.1894E-03
            3300               1     204.539E-03     209.504E-03     45.4531E-03     45.2466E-03
            3301               1     220.355E-03     224.981E-03     47.2171E-03     47.7459E-03
            3302               1     244.298E-03     248.622E-03     64.1291E-03     63.6015E-03
            3303               1     321.656E-03     325.381E-03     54.8638E-03     56.7066E-03
            3304               1     350.409E-03     353.468E-03     58.7576E-03     56.7298E-03
            3305               1     251.778E-03     250.066E-03     68.6037E-03     66.4124E-03
            3306               1     214.947E-03     211.637E-03     50.3694E-03     50.3976E-03
            3307               1     185.001E-03     181.339E-03     47.1039E-03     46.6039E-03
            3308               1     159.297E-03     155.143E-03     39.3010E-03     39.3738E-03
            3309               1     134.642E-03     130.664E-03     35.6569E-03     35.5481E-03
            3310               1     110.594E-03     106.655E-03     31.4373E-03     31.5347E-03
            3311               1     87.9929E-03     84.3432E-03     29.3632E-03     29.3043E-03
            3312               1     66.8627E-03     63.8342E-03     27.1730E-03     27.2479E-03
            3313               1     51.0078E-03     49.0767E-03     26.3751E-03     26.3105E-03
            3314               1     44.3114E-03     44.8667E-03     25.5507E-03     25.6280E-03
            3315               1     52.1751E-03     54.5667E-03     25.7913E-03     25.7041E-03
            3316               1     68.8240E-03     72.2123E-03     26.0632E-03     26.1789E-03
            3317               1     90.0020E-03     93.9201E-03     27.4249E-03     27.3028E-03
            3318               1     113.031E-03     116.758E-03     28.8716E-03     29.0917E-03
            3319               1     136.733E-03     140.961E-03     31.8457E-03     31.6677E-03
            3320               1     161.635E-03     164.981E-03     34.7783E-03     35.2343E-03
            3321               1     186.118E-03     190.283E-03     40.7382E-03     40.1778E-03
            3322               1     213.429E-03     216.331E-03     44.6068E-03     45.5942E-03
            3323               1     289.545E-03     279.770E-03     16.1912E-03     15.4822E-03
            3324               1     283.528E-03     277.436E-03     60.0814E-03     58.2989E-03
            3325               1     222.468E-03     219.244E-03     55.2530E-03     53.8840E-03
            3326               1     200.187E-03     196.437E-03     49.9675E-03     49.6828E-03
            3327               1     169.055E-03     165.820E-03     45.2458E-03     44.9097E-03
            3328               1     144.546E-03     141.565E-03     40.9790E-03     41.1551E-03
            3329               1     120.038E-03     116.980E-03     38.7362E-03     38.5686E-03
            3330               1     97.5704E-03     95.0845E-03     36.2733E-03     36.4802E-03
            3331               1     78.3321E-03     75.9281E-03     35.3737E-03     35.2036E-03
            3332               1     63.6730E-03     62.7795E-03     34.1603E-03     34.3656E-03
            3333               1     59.1642E-03     59.0400E-03     34.1303E-03     33.9092E-03
            3334               1     64.7078E-03     66.7119E-03     33.7483E-03     34.0202E-03
            3335               1     80.0903E-03     82.1873E-03     34.5285E-03     34.2160E-03
            3336               1     99.3820E-03     102.589E-03     34.8585E-03     35.2902E-03
            3337               1     122.027E-03     124.910E-03     36.6760E-03     36.2640E-03
            3338               1     145.852E-03     149.342E-03     37.9626E-03     38.6615E-03
            3339               1     170.433E-03     173.889E-03     41.2993E-03     40.7919E-03
            3340               1     198.253E-03     201.309E-03     44.3912E-03     45.2290E-03
            3341               1     222.208E-03     226.830E-03     50.1288E-03     48.7323E-03
            3342               1     251.508E-03     247.753E-03     17.7418E-03     17.4145E-03
            3343               1     250.512E-03     245.967E-03     31.4851E-03     31.7296E-03
            3344               1     240.873E-03     235.333E-03     52.9656E-03     51.9111E-03
            3345               1     200.725E-03     197.912E-03     46.9351E-03     46.6765E-03
            3346               1     177.519E-03     175.057E-03     46.8209E-03     46.9468E-03
            3347               1     149.928E-03     147.503E-03     44.7330E-03     44.4898E-03
            3348               1     127.208E-03     125.321E-03     43.2673E-03     43.5102E-03
            3349               1     105.746E-03     103.597E-03     42.6687E-03     42.4453E-03
            3350               1     87.8846E-03     86.7436E-03     41.7383E-03     41.9850E-03
            3351               1     76.0157E-03     74.8090E-03     41.7237E-03     41.4703E-03
            3352               1     71.4394E-03     72.0913E-03     41.2148E-03     41.5110E-03
            3353               1     77.4254E-03     77.9252E-03     41.5855E-03     41.2395E-03
            3354               1     89.8560E-03     92.0965E-03     41.3064E-03     41.7357E-03
            3355               1     108.516E-03     110.061E-03     42.1265E-03     41.6377E-03
            3356               1     129.247E-03     132.079E-03     42.1200E-03     42.7424E-03
            3357               1     152.423E-03     154.690E-03     43.4589E-03     42.8592E-03
            3358               1     177.547E-03     180.417E-03     44.2785E-03     44.9702E-03
            3359               1     201.799E-03     205.405E-03     45.3984E-03     45.1019E-03
            3360               1     234.715E-03     234.820E-03     49.2792E-03     48.3697E-03
            3361               1     230.817E-03     227.475E-03     13.9845E-03     12.8846E-03
            3362               1     238.638E-03     232.670E-03     33.9759E-03     33.0597E-03
            3363               1     224.269E-03     221.377E-03     32.6876E-03     33.9144E-03
            3364               1     202.199E-03     200.095E-03     44.7154E-03     44.9334E-03
            3365               1     174.637E-03     172.940E-03     44.6795E-03     44.5936E-03
            3366               1     153.307E-03     151.974E-03     46.8566E-03     47.0893E-03
            3367               1     130.781E-03     129.159E-03     47.3406E-03     47.1046E-03
            3368               1     112.444E-03     111.514E-03     47.7939E-03     48.0158E-03
            3369               1     97.0371E-03     95.7616E-03     48.2822E-03     48.0391E-03
            3370               1     86.9262E-03     86.8764E-03     48.3191E-03     48.5728E-03
            3371               1     84.3538E-03     83.9301E-03     48.6650E-03     48.3714E-03
            3372               1     88.5976E-03     89.7900E-03     48.3811E-03     48.7283E-03
            3373               1     100.478E-03     100.896E-03     48.6158E-03     48.1903E-03
            3374               1     116.008E-03     117.925E-03     47.9726E-03     48.4550E-03
            3375               1     135.564E-03     136.539E-03     48.0403E-03     47.4476E-03
            3376               1     156.707E-03     158.786E-03     47.1349E-03     47.6452E-03
            3377               1     179.120E-03     180.995E-03     46.3210E-03     45.7986E-03
            3378               1     203.941E-03     205.655E-03     45.6326E-03     45.5828E-03
            3379               1     227.737E-03     230.658E-03     39.5976E-03     41.5728E-03
            3380               1     221.692E-03     210.396E-03     17.4155E-03     17.9755E-03
            3381               1     226.676E-03     224.922E-03     13.6334E-03     16.1430E-03
            3382               1     202.010E-03     202.056E-03     29.0192E-03     30.1025E-03
            3383               1     188.455E-03     187.753E-03     36.4414E-03     36.8412E-03
            3384               1     170.543E-03     169.922E-03     45.1177E-03     45.4016E-03
            3385               1     150.497E-03     149.561E-03     48.3524E-03     48.1969E-03
            3386               1     134.184E-03     133.649E-03     51.7507E-03     51.9113E-03
            3387               1     118.084E-03     117.193E-03     53.4172E-03     53.2165E-03
            3388               1     106.434E-03     106.250E-03     54.8167E-03     54.9847E-03
            3389               1     98.7936E-03     98.2340E-03     55.5885E-03     55.3869E-03
            3390               1     96.9055E-03     97.3340E-03     55.9119E-03     56.1329E-03
            3391               1     101.337E-03     101.166E-03     56.0378E-03     55.7678E-03
            3392               1     110.570E-03     111.569E-03     55.4937E-03     55.8051E-03
            3393               1     124.543E-03     124.591E-03     54.9513E-03     54.5350E-03
            3394               1     140.733E-03     141.953E-03     53.4415E-03     53.8009E-03
            3395               1     159.276E-03     159.580E-03     51.7257E-03     51.1924E-03
            3396               1     178.687E-03     179.695E-03     48.9271E-03     49.0556E-03
            3397               1     198.862E-03     199.728E-03     44.1662E-03     44.1030E-03
            3398               1     215.679E-03     218.241E-03     38.3333E-03     38.2615E-03
            3399               1     208.216E-03     218.372E-03    -9.94858E-03    -5.69403E-03
            3400               1     183.601E-03     187.754E-03     5.39652E-03     7.17964E-03
            3401               1     182.673E-03     183.671E-03     24.6757E-03     24.9601E-03
            3402               1     172.620E-03     173.251E-03     37.6085E-03     37.9302E-03
            3403               1     161.354E-03     161.130E-03     45.8895E-03     45.8916E-03
            3404               1     150.175E-03     150.158E-03     53.5329E-03     53.6026E-03
            3405               1     136.612E-03     136.303E-03     57.1152E-03     57.0392E-03
            3406               1     126.364E-03     126.357E-03     60.6786E-03     60.7263E-03
            3407               1     116.964E-03     116.784E-03     62.2388E-03     62.1717E-03
            3408               1     112.218E-03     112.289E-03     63.6755E-03     63.7354E-03
            3409               1     111.056E-03     110.931E-03     64.0685E-03     63.9958E-03
            3410               1     114.926E-03     115.136E-03     64.1896E-03     64.2729E-03
            3411               1     122.712E-03     122.519E-03     63.5712E-03     63.4633E-03
            3412               1     133.853E-03     134.219E-03     62.4873E-03     62.5921E-03
            3413               1     147.385E-03     146.958E-03     60.5087E-03     60.3360E-03
            3414               1     162.080E-03     162.413E-03     57.7254E-03     57.7936E-03
            3415               1     177.638E-03     176.844E-03     53.3371E-03     53.1601E-03
            3416               1     191.607E-03     191.770E-03     47.1671E-03     47.1853E-03
            3417               1     206.985E-03     205.307E-03     39.4007E-03     39.0336E-03
            3418               1     222.512E-03     220.564E-03     26.5148E-03     26.4711E-03
            3419               1     201.162E-03     199.221E-03     26.5148E-03     26.4711E-03
            3420               1     179.937E-03     178.008E-03     26.5148E-03     26.4711E-03
            3421               1     158.887E-03     156.975E-03     26.5148E-03     26.4711E-03
            3422               1     138.093E-03     136.206E-03     26.5148E-03     26.4711E-03
            3423               1     117.691E-03     115.845E-03     26.5148E-03     26.4711E-03
            3424               1     97.9256E-03     96.1490E-03     26.5148E-03     26.4711E-03
            3425               1     79.2743E-03     77.6277E-03     26.5148E-03     26.4711E-03
            3426               1     62.7391E-03     61.3536E-03     26.5148E-03     26.4711E-03
            3427               1     50.4456E-03     49.5908E-03     26.5148E-03     26.4711E-03
            3428               1     45.9358E-03     45.9458E-03     26.5148E-03     26.4711E-03
            3429               1     51.3051E-03     52.1494E-03     26.5148E-03     26.4711E-03
            3430               1     64.1180E-03     65.4590E-03     26.5148E-03     26.4711E-03
            3431               1     80.9123E-03     82.5044E-03     26.5148E-03     26.4711E-03
            3432               1     99.6958E-03     101.419E-03     26.5148E-03     26.4711E-03
            3433               1     119.534E-03     121.332E-03     26.5148E-03     26.4711E-03
            3434               1     139.980E-03     141.824E-03     26.5148E-03     26.4711E-03
            3435               1     160.802E-03     162.675E-03     26.5148E-03     26.4711E-03
            3436               1     181.870E-03     183.764E-03     26.5148E-03     26.4711E-03
            3437               1     58.1995E-03     61.3231E-03     32.7932E-03     33.8824E-03
            3438               1     53.3095E-03     54.3062E-03     30.7776E-03     31.2795E-03
            3439               1     64.4210E-03     63.1654E-03     36.7696E-03     36.1764E-03
            3440               1     52.7296E-03     53.8035E-03     30.4246E-03     31.0204E-03
            3441               1     63.9255E-03     62.7629E-03     36.8991E-03     36.2029E-03
            3442               1     56.5585E-03     55.7970E-03     32.6407E-03     32.1962E-03
            3443               1     64.0362E-03     63.2544E-03     36.9387E-03     36.4496E-03
            3444               1     56.7533E-03     55.8712E-03     32.6362E-03     32.1360E-03
            3445               1     63.6998E-03     62.8352E-03     36.4021E-03     35.9429E-03
            3446               1     56.1780E-03     55.5911E-03     32.1221E-03     31.6965E-03
            3447               1     62.1848E-03     61.7379E-03     35.1689E-03     34.7068E-03
            3448               1     55.3768E-03     54.6366E-03     31.2006E-03     30.7711E-03
            3449               1     62.0576E-03     60.9800E-03     33.8740E-03     33.5233E-03
            3450               1     50.7568E-03     52.2159E-03     28.2045E-03     28.7628E-03
            3451               1     55.4157E-03     59.6468E-03     29.2263E-03     30.4580E-03
            3452               1     49.5411E-03     51.3352E-03     27.7391E-03     28.2168E-03
            3453               1     66.3030E-03     68.4527E-03     38.1162E-03     39.0717E-03
            3454               1     63.0208E-03     63.4194E-03     35.8014E-03     36.3805E-03
            3455               1     72.5217E-03     71.0547E-03     41.8047E-03     40.8978E-03
            3456               1     60.8640E-03     61.9260E-03     34.7095E-03     35.4228E-03
            3457               1     71.2727E-03     69.6610E-03     40.9025E-03     39.9349E-03
            3458               1     64.5066E-03     64.0215E-03     36.6204E-03     36.1660E-03
            3459               1     70.5125E-03     70.0060E-03     40.1627E-03     39.6977E-03
            3460               1     64.2215E-03     63.4943E-03     35.8742E-03     35.3475E-03
            3461               1     69.3617E-03     68.6231E-03     38.7885E-03     38.3103E-03
            3462               1     63.6668E-03     63.4178E-03     35.0529E-03     34.6353E-03
            3463               1     67.8231E-03     67.8810E-03     37.3286E-03     37.1138E-03
            3464               1     62.8726E-03     62.4160E-03     33.7156E-03     33.2777E-03
            3465               1     67.4201E-03     67.2335E-03     35.8576E-03     35.7328E-03
            3466               1     60.6047E-03     61.1392E-03     31.6608E-03     31.5587E-03
            3467               1     64.5491E-03     65.5525E-03     33.2008E-03     33.1500E-03
            3468               1     59.3647E-03     59.3558E-03     29.7358E-03     29.5143E-03
            3469               1     64.1774E-03     63.4123E-03     30.6241E-03     30.6014E-03
            3470               1     54.0013E-03     56.2571E-03     25.6030E-03     26.2897E-03
            3471               1     57.1485E-03     62.6902E-03     24.9835E-03     26.4183E-03
            3472               1     50.7692E-03     53.5649E-03     24.2820E-03     24.8477E-03
            3473               1     77.2983E-03     78.1724E-03     44.2652E-03     45.0447E-03
            3474               1     75.9536E-03     75.4840E-03     41.1977E-03     41.7759E-03
            3475               1     82.7660E-03     81.0713E-03     47.1911E-03     45.8216E-03
            3476               1     72.4497E-03     73.5803E-03     39.4588E-03     40.2449E-03
            3477               1     80.9510E-03     79.1264E-03     45.1759E-03     43.9035E-03
            3478               1     75.3045E-03     75.0865E-03     40.6106E-03     39.9538E-03
            3479               1     78.9876E-03     78.4402E-03     43.2306E-03     42.5060E-03
            3480               1     74.5357E-03     74.2833E-03     39.0193E-03     38.4223E-03
            3481               1     77.0061E-03     76.6553E-03     40.9751E-03     40.4620E-03
            3482               1     73.9061E-03     73.8913E-03     37.5233E-03     36.9206E-03
            3483               1     75.6376E-03     75.8398E-03     38.9439E-03     38.7224E-03
            3484               1     71.9819E-03     72.5207E-03     35.0956E-03     34.7981E-03
            3485               1     73.6095E-03     74.4078E-03     36.3943E-03     36.3337E-03
            3486               1     71.0395E-03     71.5559E-03     33.0474E-03     32.7617E-03
            3487               1     72.9379E-03     73.5668E-03     33.9382E-03     34.1099E-03
            3488               1     67.9930E-03     69.7582E-03     29.6530E-03     29.8375E-03
            3489               1     69.4704E-03     71.9970E-03     29.9469E-03     30.2692E-03
            3490               1     66.5758E-03     67.5883E-03     26.8908E-03     26.8460E-03
            3491               1     68.9099E-03     68.6351E-03     25.9836E-03     26.3369E-03
            3492               1     61.3246E-03     64.2375E-03     21.6541E-03     22.3946E-03
            3493               1     62.2296E-03     68.4864E-03     19.4092E-03     21.0463E-03
            3494               1     56.8416E-03     60.0676E-03     19.5445E-03     20.1492E-03
            3495               1     89.7705E-03     89.3791E-03     50.0826E-03     50.6613E-03
            3496               1     90.8478E-03     89.5633E-03     46.2654E-03     46.8375E-03
            3497               1     94.4857E-03     92.8489E-03     52.1546E-03     50.3819E-03
            3498               1     85.9430E-03     87.1997E-03     43.6259E-03     44.4227E-03
            3499               1     91.9214E-03     90.1070E-03     48.7401E-03     47.0945E-03
            3500               1     87.8660E-03     88.3076E-03     43.8216E-03     43.0216E-03
            3501               1     88.7483E-03     88.4951E-03     45.4054E-03     44.4710E-03
            3502               1     86.6976E-03     87.0314E-03     41.2114E-03     40.4315E-03
            3503               1     86.0181E-03     86.1101E-03     42.0472E-03     41.4282E-03
            3504               1     85.4431E-03     86.2016E-03     38.5709E-03     37.8940E-03
            3505               1     84.1074E-03     84.8511E-03     38.9439E-03     38.7224E-03
            3506               1     83.0570E-03     84.4887E-03     35.0956E-03     34.7981E-03
            3507               1     81.5356E-03     83.1655E-03     35.3222E-03     35.3675E-03
            3508               1     81.7957E-03     83.2588E-03     31.9999E-03     31.7884E-03
            3509               1     80.7895E-03     82.1208E-03     31.7634E-03     32.1449E-03
            3510               1     78.4058E-03     81.3484E-03     27.4609E-03     27.8283E-03
            3511               1     76.9042E-03     80.8550E-03     26.3826E-03     27.0781E-03
            3512               1     76.8264E-03     78.9156E-03     23.6798E-03     23.7782E-03
            3513               1     76.4341E-03     76.7311E-03     21.0201E-03     21.7766E-03
            3514               1     72.1202E-03     75.5875E-03     17.4870E-03     18.2168E-03
            3515               1     70.5131E-03     76.8320E-03     13.5919E-03     15.4296E-03
            3516               1     67.2856E-03     70.3826E-03     14.4768E-03     15.0876E-03
            3517               1     96.0687E-03     94.4466E-03     50.6275E-03     51.0046E-03
            3518               1     100.594E-03     98.7148E-03     45.9703E-03     46.5933E-03
            3519               1     99.7246E-03     99.1410E-03     51.2475E-03     49.4416E-03
            3520               1     93.9472E-03     95.5002E-03     41.5251E-03     42.3084E-03
            3521               1     96.7658E-03     95.7427E-03     45.5505E-03     43.6833E-03
            3522               1     93.8556E-03     96.2533E-03     39.8409E-03     39.3216E-03
            3523               1     91.6162E-03     93.3314E-03     39.6214E-03     38.9833E-03
            3524               1     92.2522E-03     93.9476E-03     35.2066E-03     34.3337E-03
            3525               1     88.9988E-03     90.1627E-03     33.7194E-03     33.4092E-03
            3526               1     88.2939E-03     92.1018E-03     29.5518E-03     29.4988E-03
            3527               1     83.3595E-03     88.1075E-03     26.5175E-03     27.2264E-03
            3528               1     85.7546E-03     88.6290E-03     24.0005E-03     23.6457E-03
            3529               1     81.5904E-03     82.7317E-03     19.3961E-03     20.2582E-03
            3530               1     81.1191E-03     85.2573E-03     17.1040E-03     17.4749E-03
            3531               1     75.8298E-03     81.7899E-03     11.3920E-03     13.3358E-03
            3532               1     76.5228E-03     79.3226E-03     12.5463E-03     12.9030E-03
            3533               1     241.219E-03     246.528E-03     58.1179E-03     54.6400E-03
            3534               1     289.883E-03     302.274E-03     57.8161E-03     53.3318E-03
            3535               1     264.160E-03     263.373E-03     56.4497E-03     54.8299E-03
            3536               1     289.631E-03     277.060E-03     46.9734E-03     47.4372E-03
            3537               1     257.215E-03     259.958E-03     42.5404E-03     45.7136E-03
            3538               1     273.236E-03     279.405E-03     39.0324E-03     38.0160E-03
            3539               1     250.254E-03     251.754E-03     39.0324E-03     37.1542E-03
            3540               1     263.397E-03     265.853E-03     29.4981E-03     30.2110E-03
            3541               1     238.226E-03     239.727E-03     27.9088E-03     30.0574E-03
            3542               1     253.470E-03     246.038E-03     23.9604E-03     24.3054E-03
            3543               1     214.788E-03     216.461E-03     25.8035E-03     27.0768E-03
            3544               1     233.699E-03     241.749E-03     14.6908E-03     19.3124E-03
            3545               1     203.329E-03     205.237E-03     26.5148E-03     26.4711E-03
            3546               1     225.133E-03     227.052E-03     26.5148E-03     26.4711E-03
            3547               1     137.319E-03     168.499E-03     19.2736E-03     17.2853E-03
            3548               1     182.288E-03     141.489E-03     21.5050E-03     21.1982E-03
            3549               1     142.129E-03     165.131E-03     19.3655E-03     21.0709E-03
            3550               1     145.993E-03     141.259E-03     20.7093E-03     20.0306E-03
            3551               1     141.986E-03     136.488E-03     21.0970E-03     21.4970E-03
            3552               1     126.961E-03     142.402E-03     22.1957E-03     20.6705E-03
            3553               1     142.346E-03     118.168E-03     20.7047E-03     20.5791E-03
            3554               1     110.005E-03     122.365E-03     22.1797E-03     23.2847E-03
            3555               1     120.102E-03     147.181E-03     19.7235E-03     17.9996E-03
            3556               1     158.239E-03     124.474E-03     21.8413E-03     21.8433E-03
            3557               1     123.937E-03     143.442E-03     19.3824E-03     21.6061E-03
            3558               1     124.576E-03     123.288E-03     20.3981E-03     21.0241E-03
            3559               1     121.379E-03     119.450E-03     20.4334E-03     21.3388E-03
            3560               1     111.281E-03     115.766E-03     20.6714E-03     20.7548E-03
            3561               1     109.661E-03     107.581E-03     21.2240E-03     20.2594E-03
            3562               1     103.429E-03     101.781E-03     21.1911E-03     20.3367E-03
            3563               1     95.0310E-03     102.704E-03     22.0862E-03     20.1523E-03
            3564               1     101.563E-03     87.0242E-03     20.5219E-03     19.8033E-03
            3565               1     80.9684E-03     87.3876E-03     21.7122E-03     22.1866E-03
            3566               1     92.1449E-03     113.122E-03     20.0406E-03     18.6671E-03
            3567               1     119.989E-03     94.5851E-03     21.6309E-03     21.5181E-03
            3568               1     92.9841E-03     107.572E-03     19.8135E-03     21.3743E-03
            3569               1     92.1375E-03     91.2831E-03     20.5245E-03     20.9145E-03
            3570               1     88.5958E-03     87.3360E-03     20.5594E-03     21.1667E-03
            3571               1     80.2046E-03     83.1314E-03     20.6714E-03     20.7548E-03
            3572               1     77.4932E-03     76.1061E-03     21.0980E-03     20.4315E-03
            3573               1     72.1461E-03     70.9604E-03     21.0647E-03     20.4463E-03
            3574               1     65.8379E-03     68.8579E-03     21.6551E-03     20.3840E-03
            3575               1     66.0889E-03     59.5917E-03     20.7322E-03     20.1285E-03
            3576               1     55.9551E-03     56.9470E-03     21.3951E-03     21.5191E-03
            3577               1     65.1493E-03     79.6035E-03     20.3630E-03     19.3808E-03
            3578               1     82.0690E-03     65.5150E-03     21.3128E-03     21.1548E-03
            3579               1     63.1322E-03     72.1776E-03     20.2941E-03     21.1289E-03
            3580               1     60.8735E-03     60.2906E-03     20.6303E-03     20.7234E-03
            3581               1     57.4806E-03     56.5513E-03     20.7967E-03     20.9703E-03
            3582               1     51.5105E-03     52.5648E-03     20.8819E-03     20.6531E-03
            3583               1     48.7561E-03     47.5912E-03     21.0534E-03     20.7560E-03
            3584               1     44.6430E-03     44.3692E-03     21.2728E-03     20.6581E-03
            3585               1     41.7076E-03     41.1780E-03     21.0342E-03     20.6691E-03
            3586               1     39.7458E-03     38.0795E-03     21.1213E-03     20.9395E-03
            3587               1     44.0364E-03     51.4275E-03     20.5946E-03     20.0123E-03
            3588               1     50.4641E-03     43.1051E-03     21.1412E-03     20.9168E-03
            3589               1     41.1589E-03     44.0894E-03     20.6520E-03     20.8889E-03
            3590               1     39.1022E-03     38.8725E-03     20.8855E-03     20.6972E-03
            3591               1     37.7371E-03     37.2908E-03     20.9208E-03     20.8305E-03
            3592               1     36.3733E-03     36.1722E-03     20.9093E-03     20.8525E-03
            3593               1     36.9846E-03     36.1599E-03     21.0685E-03     20.8605E-03
            3594               1     36.4016E-03     37.7477E-03     20.8587E-03     20.5577E-03
            3595               1     104.703E-03     124.892E-03     26.7632E-03     23.7677E-03
            3596               1     135.802E-03     108.174E-03     28.8529E-03     28.2142E-03
            3597               1     105.330E-03     121.603E-03     26.4355E-03     28.1316E-03
            3598               1     108.513E-03     104.698E-03     26.9471E-03     26.5597E-03
            3599               1     104.506E-03     100.895E-03     26.5389E-03     26.7014E-03
            3600               1     95.1398E-03     104.175E-03     26.6601E-03     25.6756E-03
            3601               1     105.370E-03     89.5219E-03     25.8054E-03     25.2207E-03
            3602               1     84.9044E-03     94.3653E-03     26.2498E-03     28.2286E-03
            3603               1     92.9870E-03     109.401E-03     26.5739E-03     23.6392E-03
            3604               1     119.246E-03     96.5768E-03     28.4801E-03     27.2793E-03
            3605               1     93.9912E-03     107.423E-03     26.5072E-03     27.4878E-03
            3606               1     95.8157E-03     93.9459E-03     27.1324E-03     26.1121E-03
            3607               1     92.0884E-03     91.7125E-03     26.7973E-03     26.6908E-03
            3608               1     85.5548E-03     88.8267E-03     26.1155E-03     26.4151E-03
            3609               1     83.1361E-03     83.5971E-03     25.6928E-03     26.1408E-03
            3610               1     79.5476E-03     79.3035E-03     25.4689E-03     26.0403E-03
            3611               1     74.1733E-03     79.3985E-03     25.7269E-03     25.1305E-03
            3612               1     79.1088E-03     70.6295E-03     25.3019E-03     25.1240E-03
            3613               1     66.3376E-03     71.8969E-03     25.3008E-03     26.7353E-03
            3614               1     75.3887E-03     87.1945E-03     26.3710E-03     24.1328E-03
            3615               1     94.1776E-03     77.5402E-03     27.9734E-03     26.9357E-03
            3616               1     75.0152E-03     84.5907E-03     26.3828E-03     27.1120E-03
            3617               1     75.6430E-03     74.1851E-03     26.8672E-03     26.1007E-03
            3618               1     72.2798E-03     72.0410E-03     26.6212E-03     26.6031E-03
            3619               1     67.0290E-03     69.1586E-03     26.1155E-03     26.4151E-03
            3620               1     64.4660E-03     64.9677E-03     25.8689E-03     26.2285E-03
            3621               1     61.4707E-03     61.4449E-03     25.7341E-03     26.0518E-03
            3622               1     57.9413E-03     59.9105E-03     25.8513E-03     25.5063E-03
            3623               1     58.7058E-03     55.2922E-03     25.8085E-03     25.4676E-03
            3624               1     52.8329E-03     54.5101E-03     25.5038E-03     26.2417E-03
            3625               1     59.8547E-03     67.0576E-03     26.3272E-03     24.8683E-03
            3626               1     71.0451E-03     60.6244E-03     27.6987E-03     26.8289E-03
            3627               1     58.2149E-03     63.9486E-03     26.3421E-03     26.9605E-03
            3628               1     58.0504E-03     56.9215E-03     26.7888E-03     26.3450E-03
            3629               1     55.0993E-03     55.2339E-03     26.4918E-03     26.6547E-03
            3630               1     51.8932E-03     52.9099E-03     26.1768E-03     26.5636E-03
            3631               1     50.2605E-03     49.9618E-03     26.2542E-03     26.1935E-03
            3632               1     48.5305E-03     48.6059E-03     26.2104E-03     26.1961E-03
            3633               1     47.7857E-03     46.9261E-03     26.5046E-03     25.9136E-03
            3634               1     46.2507E-03     45.9640E-03     26.0069E-03     26.1535E-03
            3635               1     49.5799E-03     52.5540E-03     26.5298E-03     25.7954E-03
            3636               1     53.9824E-03     49.5684E-03     27.4677E-03     26.8535E-03
            3637               1     48.0314E-03     50.1188E-03     26.5376E-03     27.0152E-03
            3638               1     47.5919E-03     47.3094E-03     26.7615E-03     26.6241E-03
            3639               1     46.7695E-03     46.5522E-03     26.7244E-03     26.6370E-03
            3640               1     46.0576E-03     46.4132E-03     26.5580E-03     26.7920E-03
            3641               1     47.4013E-03     46.0630E-03     27.1906E-03     26.5814E-03
            3642               1     46.0098E-03     46.4053E-03     26.4832E-03     26.2009E-03
            3643               1     75.9810E-03     79.5491E-03     31.8530E-03     27.3091E-03
            3644               1     92.0915E-03     76.8807E-03     35.3380E-03     31.8314E-03
            3645               1     76.4997E-03     83.3988E-03     31.5571E-03     31.2561E-03
            3646               1     77.6522E-03     76.0289E-03     31.5414E-03     30.0558E-03
            3647               1     74.6723E-03     75.7269E-03     30.0142E-03     31.5636E-03
            3648               1     68.5106E-03     74.4416E-03     29.5574E-03     30.1443E-03
            3649               1     69.6893E-03     66.6586E-03     26.6410E-03     29.3539E-03
            3650               1     64.3857E-03     70.4732E-03     29.3813E-03     32.2240E-03
            3651               1     67.8519E-03     69.0384E-03     30.1971E-03     26.0587E-03
            3652               1     81.4153E-03     68.4534E-03     33.7045E-03     30.0527E-03
            3653               1     69.7479E-03     73.4236E-03     30.4189E-03     29.3041E-03
            3654               1     71.6612E-03     68.4013E-03     31.2918E-03     28.6018E-03
            3655               1     70.4961E-03     69.4221E-03     30.5738E-03     29.5540E-03
            3656               1     67.3918E-03     68.9340E-03     30.0976E-03     29.8121E-03
            3657               1     65.5517E-03     67.2416E-03     29.4108E-03     30.0989E-03
            3658               1     62.3778E-03     65.8459E-03     28.4868E-03     30.8848E-03
            3659               1     58.9803E-03     63.6961E-03     28.4274E-03     30.1258E-03
            3660               1     57.2942E-03     58.7310E-03     26.2846E-03     29.1229E-03
            3661               1     56.5221E-03     60.7915E-03     28.8047E-03     31.3158E-03
            3662               1     61.0412E-03     61.1031E-03     29.9751E-03     26.8968E-03
            3663               1     70.3581E-03     61.1881E-03     32.5216E-03     29.9044E-03
            3664               1     61.8487E-03     64.0569E-03     30.1014E-03     29.4351E-03
            3665               1     62.9705E-03     60.3511E-03     30.8446E-03     28.9658E-03
            3666               1     61.8845E-03     60.8426E-03     30.3884E-03     29.6409E-03
            3667               1     59.6986E-03     60.2823E-03     30.0976E-03     29.8121E-03
            3668               1     58.0646E-03     59.1510E-03     29.5962E-03     30.0120E-03
            3669               1     55.8363E-03     58.3831E-03     28.9339E-03     30.5209E-03
            3670               1     53.6760E-03     56.5219E-03     28.7449E-03     29.9948E-03
            3671               1     51.6839E-03     53.8674E-03     27.4674E-03     29.2711E-03
            3672               1     52.5945E-03     54.8114E-03     29.0267E-03     30.4777E-03
            3673               1     56.4261E-03     55.7802E-03     30.2266E-03     28.1470E-03
            3674               1     61.5174E-03     56.2675E-03     31.7154E-03     30.1877E-03
            3675               1     56.3605E-03     57.3666E-03     30.2852E-03     29.9762E-03
            3676               1     56.4925E-03     55.2750E-03     30.6196E-03     29.7974E-03
            3677               1     55.9209E-03     55.2357E-03     30.5462E-03     30.2007E-03
            3678               1     54.1716E-03     54.7158E-03     30.1578E-03     30.1886E-03
            3679               1     53.0145E-03     54.1486E-03     29.6965E-03     30.4420E-03
            3680               1     51.8863E-03     52.9492E-03     29.4937E-03     30.0445E-03
            3681               1     50.6033E-03     52.1134E-03     28.9111E-03     29.7716E-03
            3682               1     51.4818E-03     51.8723E-03     29.5460E-03     29.8770E-03
            3683               1     54.2682E-03     53.4229E-03     30.7295E-03     29.5432E-03
            3684               1     56.0829E-03     54.0483E-03     31.3849E-03     30.7052E-03
            3685               1     53.7702E-03     54.2868E-03     30.6481E-03     30.7508E-03
            3686               1     53.7361E-03     53.6316E-03     30.8472E-03     30.7412E-03
            3687               1     53.3507E-03     53.5927E-03     30.7084E-03     30.8782E-03
            3688               1     52.7818E-03     53.0898E-03     30.4663E-03     30.6497E-03
            3689               1     53.0643E-03     52.7999E-03     30.5942E-03     30.4800E-03
            3690               1     52.8874E-03     52.2515E-03     30.5048E-03     29.9900E-03
            3691               1     55.5813E-03     43.5397E-03     31.5797E-03     25.0097E-03
            3692               1     61.1571E-03     52.6801E-03     34.5701E-03     29.3439E-03
            3693               1     56.1962E-03     55.8739E-03     31.0393E-03     30.7921E-03
            3694               1     59.7293E-03     55.7857E-03     32.6654E-03     30.3251E-03
            3695               1     59.5785E-03     61.2279E-03     32.7449E-03     33.5029E-03
            3696               1     59.7989E-03     61.6789E-03     33.1497E-03     34.3897E-03
            3697               1     54.2611E-03     62.0614E-03     30.8268E-03     35.0809E-03
            3698               1     54.9281E-03     64.8430E-03     31.2502E-03     37.3841E-03
            3699               1     51.0046E-03     41.7091E-03     29.3076E-03     24.0683E-03
            3700               1     55.5176E-03     48.8321E-03     31.8245E-03     27.8232E-03
            3701               1     51.3176E-03     51.0401E-03     28.9316E-03     28.8882E-03
            3702               1     54.7149E-03     50.5655E-03     30.3615E-03     28.1939E-03
            3703               1     55.9313E-03     53.8801E-03     30.9342E-03     29.8227E-03
            3704               1     56.7405E-03     55.2450E-03     31.0894E-03     30.5609E-03
            3705               1     58.1409E-03     56.5542E-03     32.1137E-03     31.2849E-03
            3706               1     57.6294E-03     59.4289E-03     32.0814E-03     33.1901E-03
            3707               1     58.1857E-03     60.0080E-03     32.8265E-03     34.0693E-03
            3708               1     53.5840E-03     60.9510E-03     30.8276E-03     34.9189E-03
            3709               1     53.9827E-03     62.3501E-03     31.0220E-03     35.9162E-03
            3710               1     51.3472E-03     44.9614E-03     29.5809E-03     25.9571E-03
            3711               1     55.0632E-03     50.4435E-03     31.6656E-03     28.9544E-03
            3712               1     51.7143E-03     51.9078E-03     29.5526E-03     29.7141E-03
            3713               1     54.0475E-03     50.9513E-03     30.6357E-03     28.9904E-03
            3714               1     54.9752E-03     53.0678E-03     31.1222E-03     30.0558E-03
            3715               1     55.2091E-03     54.0180E-03     31.0894E-03     30.5609E-03
            3716               1     56.5151E-03     54.9304E-03     31.9256E-03     31.0518E-03
            3717               1     56.0729E-03     57.0975E-03     31.8072E-03     32.3936E-03
            3718               1     56.4505E-03     58.0755E-03     32.2056E-03     33.2433E-03
            3719               1     53.7425E-03     58.7435E-03     30.9866E-03     33.7877E-03
            3720               1     53.3808E-03     59.0303E-03     30.7487E-03     34.0274E-03
            3721               1     52.6571E-03     48.9982E-03     30.3728E-03     28.2850E-03
            3722               1     55.7042E-03     52.8475E-03     32.0900E-03     30.4407E-03
            3723               1     53.2723E-03     53.9083E-03     30.6556E-03     31.0354E-03
            3724               1     54.9622E-03     52.5001E-03     31.5531E-03     30.1780E-03
            3725               1     55.2786E-03     54.0074E-03     31.7308E-03     31.0013E-03
            3726               1     55.4629E-03     54.3451E-03     31.8018E-03     31.1848E-03
            3727               1     55.7534E-03     55.2790E-03     32.0221E-03     31.7052E-03
            3728               1     55.3946E-03     56.9852E-03     31.8447E-03     32.7989E-03
            3729               1     54.4597E-03     56.7625E-03     31.4296E-03     32.7273E-03
            3730               1     53.4383E-03     56.4555E-03     30.8240E-03     32.5726E-03
            3731               1     54.4546E-03     53.0850E-03     31.4299E-03     30.6344E-03
            3732               1     56.9874E-03     55.3745E-03     32.8686E-03     31.9516E-03
            3733               1     55.4463E-03     56.1967E-03     31.9986E-03     32.4274E-03
            3734               1     56.6824E-03     55.0473E-03     32.7016E-03     31.7696E-03
            3735               1     56.6680E-03     55.5707E-03     32.7088E-03     32.0585E-03
            3736               1     55.7879E-03     56.7459E-03     32.1904E-03     32.7545E-03
            3737               1     56.3490E-03     56.2511E-03     32.5283E-03     32.4732E-03
            3738               1     54.3943E-03     55.0266E-03     31.4000E-03     31.7593E-03
            3739               1     43.4031E-03     55.1013E-03     19.6712E-03     18.7325E-03
            3740               1     56.0465E-03     51.8446E-03     23.9918E-03     24.7801E-03
            3741               1     48.5160E-03     55.4613E-03     25.4348E-03     26.6801E-03
            3742               1     56.3363E-03     55.7517E-03     29.6256E-03     29.3064E-03
            3743               1     59.7001E-03     59.3500E-03     31.9961E-03     31.5872E-03
            3744               1     65.5215E-03     64.1096E-03     36.2111E-03     34.8748E-03
            3745               1     72.8642E-03     71.0250E-03     40.0296E-03     39.3693E-03
            3746               1     78.8157E-03     81.1423E-03     44.4739E-03     43.7108E-03
            3747               1     43.2328E-03     53.6403E-03     19.5665E-03     18.7997E-03
            3748               1     54.4500E-03     50.3716E-03     22.8789E-03     23.9398E-03
            3749               1     45.1077E-03     53.1667E-03     23.4161E-03     24.9613E-03
            3750               1     50.1786E-03     50.6836E-03     26.1816E-03     26.4264E-03
            3751               1     50.5757E-03     53.2337E-03     27.1846E-03     27.9425E-03
            3752               1     53.6640E-03     53.3060E-03     29.2957E-03     28.7639E-03
            3753               1     56.5646E-03     56.4389E-03     31.0794E-03     30.7817E-03
            3754               1     60.7679E-03     57.7750E-03     33.5380E-03     31.9090E-03
            3755               1     64.9902E-03     63.1140E-03     36.3740E-03     35.1979E-03
            3756               1     71.0622E-03     68.6716E-03     39.8878E-03     38.6794E-03
            3757               1     76.2205E-03     76.8479E-03     43.4177E-03     42.3462E-03
            3758               1     45.4626E-03     50.6283E-03     23.3688E-03     22.5535E-03
            3759               1     53.1109E-03     50.5932E-03     25.5905E-03     26.2896E-03
            3760               1     46.6772E-03     51.8908E-03     25.4818E-03     26.5933E-03
            3761               1     49.9565E-03     49.9345E-03     27.3543E-03     27.3005E-03
            3762               1     49.8778E-03     51.6536E-03     27.8055E-03     28.3951E-03
            3763               1     52.1179E-03     51.4671E-03     29.2957E-03     28.7639E-03
            3764               1     54.0820E-03     53.9216E-03     30.4585E-03     30.3291E-03
            3765               1     57.4100E-03     54.9304E-03     32.3652E-03     31.0350E-03
            3766               1     60.5792E-03     58.9961E-03     34.3083E-03     33.5660E-03
            3767               1     65.1230E-03     63.5890E-03     37.1763E-03     36.3296E-03
            3768               1     68.9271E-03     68.0146E-03     39.6153E-03     38.5924E-03
            3769               1     49.4564E-03     50.6499E-03     27.4038E-03     26.5562E-03
            3770               1     53.5659E-03     52.3221E-03     28.6109E-03     28.9565E-03
            3771               1     49.4738E-03     51.8962E-03     27.9597E-03     28.5443E-03
            3772               1     51.1658E-03     50.7803E-03     29.0331E-03     28.7708E-03
            3773               1     51.0631E-03     51.3389E-03     29.1715E-03     29.2310E-03
            3774               1     52.4845E-03     52.0279E-03     30.0851E-03     29.8168E-03
            3775               1     54.5837E-03     53.2535E-03     31.2261E-03     30.5104E-03
            3776               1     56.6299E-03     55.5814E-03     32.3698E-03     31.9231E-03
            3777               1     60.2611E-03     59.5242E-03     34.5863E-03     34.2336E-03
            3778               1     62.1875E-03     60.5869E-03     35.8732E-03     34.9281E-03
            3779               1     54.1030E-03     53.3004E-03     30.9452E-03     30.0863E-03
            3780               1     55.4255E-03     54.9730E-03     31.2817E-03     31.4116E-03
            3781               1     52.7776E-03     53.2353E-03     30.3331E-03     30.4050E-03
            3782               1     53.2616E-03     52.6320E-03     30.7031E-03     30.3431E-03
            3783               1     53.5937E-03     52.9884E-03     30.9186E-03     30.5505E-03
            3784               1     54.4222E-03     54.1111E-03     31.3128E-03     31.1500E-03
            3785               1     57.1759E-03     56.8883E-03     32.7397E-03     32.7379E-03
            3786               1     57.6246E-03     56.2447E-03     33.2000E-03     32.3570E-03
            3787               1     60.3195E-03     75.1297E-03     5.86114E-03     10.8664E-03
            3788               1     69.6826E-03     62.2761E-03     12.1808E-03     16.6425E-03
            3789               1     63.0601E-03     69.6846E-03     21.0345E-03     21.2649E-03
            3790               1     64.7857E-03     64.6145E-03     23.3103E-03     25.0503E-03
            3791               1     67.1081E-03     66.3263E-03     28.9687E-03     27.7902E-03
            3792               1     68.8181E-03     67.4626E-03     32.6621E-03     31.2763E-03
            3793               1     81.3910E-03     72.7992E-03     42.5385E-03     37.4197E-03
            3794               1     86.1984E-03     80.7513E-03     47.9257E-03     43.6696E-03
            3795               1     57.8293E-03     71.4094E-03     7.62518E-03     11.7477E-03
            3796               1     66.1176E-03     58.8187E-03     12.3973E-03     15.8632E-03
            3797               1     57.8296E-03     64.2888E-03     19.1563E-03     19.3759E-03
            3798               1     58.3491E-03     58.5040E-03     19.9899E-03     22.0789E-03
            3799               1     56.8035E-03     58.0182E-03     22.9882E-03     23.3897E-03
            3800               1     57.1551E-03     57.7286E-03     25.1791E-03     25.7225E-03
            3801               1     57.8761E-03     57.3167E-03     27.5633E-03     27.2943E-03
            3802               1     61.2127E-03     59.7901E-03     31.1410E-03     30.0762E-03
            3803               1     64.0885E-03     61.2347E-03     34.1065E-03     32.1910E-03
            3804               1     76.1804E-03     68.8435E-03     42.4247E-03     37.8300E-03
            3805               1     80.1472E-03     74.5841E-03     45.8034E-03     42.1367E-03
            3806               1     51.3439E-03     62.2524E-03     13.7116E-03     16.5924E-03
            3807               1     57.6414E-03     52.9267E-03     17.1843E-03     19.3651E-03
            3808               1     51.7425E-03     56.2215E-03     21.5397E-03     21.4189E-03
            3809               1     51.3652E-03     51.9869E-03     21.7676E-03     23.3538E-03
            3810               1     50.1922E-03     51.1528E-03     23.7176E-03     24.0122E-03
            3811               1     50.3505E-03     51.0903E-03     25.1791E-03     25.7225E-03
            3812               1     51.0201E-03     50.6112E-03     26.8339E-03     26.6718E-03
            3813               1     53.5874E-03     52.9743E-03     29.3633E-03     28.8013E-03
            3814               1     56.5425E-03     53.8491E-03     31.7231E-03     30.1480E-03
            3815               1     65.5583E-03     60.6051E-03     37.6377E-03     34.3280E-03
            3816               1     68.8020E-03     64.7385E-03     39.7170E-03     37.2920E-03
            3817               1     48.1105E-03     55.4099E-03     19.8205E-03     21.5374E-03
            3818               1     51.7267E-03     49.2222E-03     22.0532E-03     23.0800E-03
            3819               1     47.8664E-03     50.0344E-03     24.1529E-03     23.7610E-03
            3820               1     46.6304E-03     47.4520E-03     23.9522E-03     24.9953E-03
            3821               1     46.2821E-03     46.9470E-03     25.1011E-03     25.2849E-03
            3822               1     46.5936E-03     46.6894E-03     26.0201E-03     26.1806E-03
            3823               1     48.0502E-03     48.1151E-03     27.4270E-03     27.3278E-03
            3824               1     50.7676E-03     48.9670E-03     29.2292E-03     28.1348E-03
            3825               1     56.8126E-03     53.7769E-03     32.7080E-03     30.6998E-03
            3826               1     59.0931E-03     57.4648E-03     33.7509E-03     32.5947E-03
            3827               1     48.4953E-03     52.2157E-03     24.9814E-03     25.7769E-03
            3828               1     49.4509E-03     48.1005E-03     25.9798E-03     26.0867E-03
            3829               1     46.7319E-03     46.9600E-03     26.3198E-03     25.8155E-03
            3830               1     45.4517E-03     45.8679E-03     25.8823E-03     26.2957E-03
            3831               1     45.7570E-03     46.0895E-03     26.3967E-03     26.5448E-03
            3832               1     47.4648E-03     46.6641E-03     27.3768E-03     26.7257E-03
            3833               1     51.0509E-03     49.4255E-03     28.7395E-03     27.9755E-03
            3834               1     51.9278E-03     52.9730E-03     28.8055E-03     28.7590E-03
            3947               1     223.065E-03     223.644E-03    -36.2506E-03    -35.4352E-03
            3948               1     236.503E-03     236.115E-03    -25.6514E-03    -29.2555E-03
            3949               1     214.439E-03     222.067E-03    -29.7203E-03    -30.3934E-03
            3950               1     245.167E-03     248.490E-03    -32.0501E-03    -28.6554E-03
            3951               1     222.645E-03     224.876E-03    -15.7855E-03    -18.1389E-03
            3952               1     245.880E-03     256.227E-03    -7.20616E-03    -12.0247E-03
            3953               1     245.934E-03     248.861E-03    -21.5800E-03    -21.6044E-03
            3954               1     266.610E-03     253.364E-03    -16.7719E-03    -16.7490E-03
            3955               1     256.998E-03     256.078E-03    -31.0206E-03    -32.2219E-03
            3956               1     267.006E-03     281.005E-03    -26.0068E-03    -25.6726E-03
            3957               1     259.767E-03     261.650E-03    -42.7650E-03    -42.5131E-03
            3958               1     287.595E-03     272.084E-03    -37.5788E-03    -38.3218E-03
            3959               1     238.881E-03     243.625E-03    -47.7311E-03    -44.1645E-03
            3960               1     282.581E-03     295.508E-03    -47.4043E-03    -42.6371E-03
            3961               1     46.7578E-03     47.3958E-03    -26.9851E-03    -26.7573E-03
            3962               1     47.1867E-03     48.0797E-03    -27.1751E-03    -27.1443E-03
            3963               1     51.0347E-03     47.4497E-03    -27.4793E-03    -27.1715E-03
            3964               1     48.2826E-03     52.5425E-03    -26.8985E-03    -26.4444E-03
            3965               1     48.6263E-03     47.7293E-03    -27.9007E-03    -27.4803E-03
            3966               1     48.7667E-03     48.4654E-03    -27.9065E-03    -27.3165E-03
            3967               1     51.1253E-03     49.8906E-03    -28.0506E-03    -27.5017E-03
            3968               1     53.7802E-03     53.0014E-03    -27.7822E-03    -27.3724E-03
            3969               1     57.3250E-03     56.7367E-03    -27.8268E-03    -27.4491E-03
            3970               1     60.8513E-03     62.0240E-03    -27.4786E-03    -27.5764E-03
            3971               1     67.5858E-03     66.8730E-03    -27.5379E-03    -27.8142E-03
            3972               1     71.6968E-03     71.4571E-03    -27.4727E-03    -27.5910E-03
            3973               1     74.9676E-03     84.8796E-03    -27.0698E-03    -28.0019E-03
            3974               1     96.6029E-03     77.7759E-03    -28.3723E-03    -28.0091E-03
            3975               1     77.6436E-03     94.4249E-03    -27.1510E-03    -25.9373E-03
            3976               1     66.5157E-03     66.1228E-03    -28.3398E-03    -28.3926E-03
            3977               1     76.4225E-03     70.7913E-03    -27.8424E-03    -27.3292E-03
            3978               1     77.9700E-03     80.5677E-03    -28.6011E-03    -27.3052E-03
            3979               1     85.9535E-03     83.7658E-03    -28.1229E-03    -27.6191E-03
            3980               1     90.4579E-03     92.1392E-03    -27.7747E-03    -27.3447E-03
            3981               1     99.4972E-03     98.0161E-03    -27.6154E-03    -27.9442E-03
            3982               1     104.151E-03     103.175E-03    -27.2424E-03    -27.4920E-03
            3983               1     106.635E-03     122.485E-03    -26.6396E-03    -28.2148E-03
            3984               1     137.901E-03     108.523E-03    -28.4007E-03    -28.2184E-03
            3985               1     106.528E-03     131.476E-03    -26.7613E-03    -25.1865E-03
            3986               1     94.2793E-03     99.9391E-03    -28.7345E-03    -29.1942E-03
            3987               1     116.633E-03     101.512E-03    -27.7028E-03    -27.1069E-03
            3988               1     111.341E-03     119.223E-03    -29.0915E-03    -27.0778E-03
            3989               1     122.042E-03     118.906E-03    -28.3430E-03    -27.6509E-03
            3990               1     127.056E-03     129.006E-03    -27.8145E-03    -27.1948E-03
            3991               1     136.816E-03     135.347E-03    -27.5756E-03    -28.0941E-03
            3992               1     141.716E-03     139.932E-03    -27.0223E-03    -27.4602E-03
            3993               1     142.599E-03     164.260E-03    -26.1492E-03    -28.4422E-03
            3994               1     182.668E-03     143.016E-03    -28.5403E-03    -28.4407E-03
            3995               1     138.832E-03     171.343E-03    -26.3666E-03    -24.3849E-03
            3996               1     61.0300E-03     61.0496E-03    -35.2341E-03    -34.9356E-03
            3997               1     61.9915E-03     62.0112E-03    -35.7541E-03    -35.5942E-03
            3998               1     63.7893E-03     61.8209E-03    -35.9106E-03    -35.6042E-03
            3999               1     61.5258E-03     62.9299E-03    -35.1413E-03    -34.6275E-03
            4000               1     59.4492E-03     59.1253E-03    -34.2722E-03    -34.0766E-03
            4001               1     61.0636E-03     60.0428E-03    -35.2023E-03    -34.4652E-03
            4002               1     60.8703E-03     60.6563E-03    -34.6125E-03    -34.5732E-03
            4003               1     62.0736E-03     61.9539E-03    -34.6893E-03    -34.6652E-03
            4004               1     63.6037E-03     64.1808E-03    -34.7038E-03    -35.0151E-03
            4005               1     65.5759E-03     66.7148E-03    -34.7263E-03    -35.1329E-03
            4006               1     69.2171E-03     69.1816E-03    -35.1076E-03    -35.2162E-03
            4007               1     72.0153E-03     71.0476E-03    -35.2621E-03    -34.7074E-03
            4008               1     72.7223E-03     78.4405E-03    -34.8868E-03    -35.4388E-03
            4009               1     86.6091E-03     75.0925E-03    -36.3391E-03    -35.2202E-03
            4010               1     74.2873E-03     81.9840E-03    -34.7161E-03    -32.9474E-03
            4011               1     67.2609E-03     68.2808E-03    -34.4816E-03    -35.2407E-03
            4012               1     72.5723E-03     69.3902E-03    -34.8461E-03    -34.1601E-03
            4013               1     73.0268E-03     74.3803E-03    -34.8324E-03    -34.5685E-03
            4014               1     76.7445E-03     76.1528E-03    -34.7395E-03    -34.7580E-03
            4015               1     79.8843E-03     81.4674E-03    -34.7028E-03    -35.2846E-03
            4016               1     85.3549E-03     85.3727E-03    -35.3320E-03    -35.4510E-03
            4017               1     89.9576E-03     88.2062E-03    -35.7735E-03    -35.0991E-03
            4018               1     89.8532E-03     100.439E-03    -35.0710E-03    -36.1385E-03
            4019               1     112.149E-03     93.1044E-03    -37.2290E-03    -35.9563E-03
            4020               1     91.0254E-03     104.757E-03    -35.0957E-03    -32.6245E-03
            4021               1     81.4099E-03     86.5778E-03    -34.3281E-03    -35.8947E-03
            4022               1     94.3047E-03     85.6132E-03    -34.2503E-03    -33.7110E-03
            4023               1     90.8198E-03     95.3891E-03    -34.7727E-03    -34.1760E-03
            4024               1     96.5394E-03     95.5100E-03    -34.4810E-03    -34.6727E-03
            4025               1     100.420E-03     102.357E-03    -34.5454E-03    -35.2430E-03
            4026               1     106.959E-03     107.025E-03    -35.4894E-03    -35.4925E-03
            4027               1     112.356E-03     109.972E-03    -36.0320E-03    -35.1843E-03
            4028               1     111.172E-03     126.224E-03    -35.1306E-03    -36.5310E-03
            4029               1     140.923E-03     114.498E-03    -37.8247E-03    -36.4054E-03
            4030               1     110.770E-03     130.243E-03    -35.2492E-03    -31.9705E-03
            4031               1     71.7954E-03     71.2327E-03    -41.4501E-03    -40.9920E-03
            4032               1     72.0967E-03     71.9484E-03    -41.6118E-03    -41.4681E-03
            4033               1     72.9989E-03     71.9595E-03    -41.9034E-03    -41.5292E-03
            4034               1     71.9375E-03     71.5852E-03    -41.4038E-03    -40.7529E-03
            4035               1     67.6150E-03     67.8017E-03    -39.0231E-03    -39.1266E-03
            4036               1     66.8659E-03     67.9939E-03    -38.5858E-03    -39.1884E-03
            4037               1     67.4591E-03     68.9220E-03    -38.8022E-03    -39.6698E-03
            4038               1     68.6765E-03     69.9176E-03    -39.2568E-03    -39.9757E-03
            4039               1     69.8289E-03     70.1731E-03    -39.6824E-03    -39.7978E-03
            4040               1     71.0394E-03     70.6721E-03    -40.0477E-03    -39.6878E-03
            4041               1     72.1260E-03     71.1757E-03    -40.1214E-03    -39.6105E-03
            4042               1     72.8461E-03     71.1491E-03    -40.2706E-03    -39.1882E-03
            4043               1     72.2547E-03     73.4403E-03    -39.5498E-03    -39.4272E-03
            4044               1     77.9196E-03     72.1935E-03    -41.2802E-03    -39.5429E-03
            4045               1     72.3620E-03     71.4749E-03    -39.5221E-03    -37.2423E-03
            4046               1     69.7263E-03     71.5221E-03    -39.0940E-03    -40.3367E-03
            4047               1     68.5356E-03     71.1181E-03    -37.5159E-03    -39.4487E-03
            4048               1     71.0147E-03     73.4235E-03    -38.9648E-03    -39.9384E-03
            4049               1     73.4073E-03     75.5675E-03    -39.1840E-03    -40.6964E-03
            4050               1     75.4901E-03     76.9532E-03    -39.9692E-03    -40.1723E-03
            4051               1     78.8408E-03     77.9031E-03    -40.7750E-03    -40.1885E-03
            4052               1     79.9707E-03     77.8159E-03    -41.0329E-03    -39.4599E-03
            4053               1     79.6593E-03     81.8984E-03    -40.5976E-03    -39.9170E-03
            4054               1     89.2272E-03     79.0648E-03    -43.1825E-03    -40.3134E-03
            4055               1     79.1487E-03     78.9864E-03    -40.4467E-03    -36.8757E-03
            4056               1     73.5198E-03     77.6975E-03    -38.7559E-03    -41.2020E-03
            4057               1     73.9030E-03     75.9535E-03    -36.0992E-03    -39.2325E-03
            4058               1     76.3005E-03     80.7848E-03    -38.5566E-03    -39.9437E-03
            4059               1     80.2756E-03     83.1935E-03    -38.7218E-03    -41.0055E-03
            4060               1     83.0404E-03     85.5765E-03    -39.7678E-03    -40.1682E-03
            4061               1     87.5864E-03     86.8562E-03    -40.9764E-03    -40.1925E-03
            4062               1     89.1862E-03     86.2465E-03    -41.4952E-03    -39.1507E-03
            4063               1     88.1791E-03     92.1992E-03    -41.0058E-03    -39.9116E-03
            4064               1     101.775E-03     86.9433E-03    -44.5992E-03    -40.5296E-03
            4065               1     86.6563E-03     87.8752E-03    -40.7848E-03    -36.0105E-03
            4066               1     75.9664E-03     75.3921E-03    -43.8587E-03    -43.5108E-03
            4067               1     77.7239E-03     77.8775E-03    -44.8669E-03    -44.9621E-03
            4068               1     78.4912E-03     77.8147E-03    -45.2851E-03    -44.9192E-03
            4069               1     76.2303E-03     74.7732E-03    -44.0029E-03    -43.1276E-03
            4070               1     70.0684E-03     72.8438E-03    -40.4340E-03    -42.0238E-03
            4071               1     71.8781E-03     74.4990E-03    -41.4933E-03    -42.9869E-03
            4072               1     72.5521E-03     74.3048E-03    -41.7815E-03    -42.8264E-03
            4073               1     72.7123E-03     72.6468E-03    -41.8587E-03    -41.7817E-03
            4074               1     73.3323E-03     71.1955E-03    -42.1746E-03    -40.9484E-03
            4075               1     71.9933E-03     70.7676E-03    -41.4018E-03    -40.7263E-03
            4076               1     72.5547E-03     70.1976E-03    -41.7754E-03    -40.4207E-03
            4077               1     71.6575E-03     69.3737E-03    -41.2532E-03    -39.9888E-03
            4078               1     70.1393E-03     71.0959E-03    -40.4403E-03    -40.9990E-03
            4079               1     72.6939E-03     70.1392E-03    -41.9175E-03    -40.4556E-03
            4080               1     69.0617E-03     65.4736E-03    -39.8570E-03    -37.7972E-03
            4081               1     71.3969E-03     77.5874E-03    -41.1357E-03    -44.7577E-03
            4082               1     72.0405E-03     76.9304E-03    -41.5404E-03    -44.2765E-03
            4083               1     74.6835E-03     77.1010E-03    -42.7472E-03    -44.2273E-03
            4084               1     74.8995E-03     74.9923E-03    -42.7465E-03    -42.7312E-03
            4085               1     74.4396E-03     73.0398E-03    -42.3477E-03    -41.6043E-03
            4086               1     74.1435E-03     72.3215E-03    -42.2394E-03    -41.2067E-03
            4087               1     73.3830E-03     69.4984E-03    -41.8354E-03    -39.6832E-03
            4088               1     70.6353E-03     71.0718E-03    -40.4636E-03    -40.7500E-03
            4089               1     74.7733E-03     69.1681E-03    -42.9990E-03    -39.7259E-03
            4090               1     69.9548E-03     62.7265E-03    -40.3009E-03    -36.2105E-03
            4091               1     71.9342E-03     81.3145E-03    -41.3444E-03    -46.8945E-03
            4092               1     71.5737E-03     79.2134E-03    -41.1758E-03    -45.4141E-03
            4093               1     76.3882E-03     79.1809E-03    -43.3181E-03    -45.0967E-03
            4094               1     76.3571E-03     77.3676E-03    -42.9743E-03    -43.4932E-03
            4095               1     75.7848E-03     74.3972E-03    -42.3748E-03    -41.7037E-03
            4096               1     75.3482E-03     73.3370E-03    -42.2123E-03    -41.1073E-03
            4097               1     74.1155E-03     69.2462E-03    -41.6076E-03    -38.9212E-03
            4098               1     70.3757E-03     70.2109E-03    -39.8927E-03    -39.8806E-03
            4099               1     75.6612E-03     67.6289E-03    -43.3636E-03    -38.5883E-03
            4100               1     69.7766E-03     59.0275E-03    -40.0922E-03    -34.0737E-03
            4101               1     77.5789E-03     75.5757E-03    -44.7889E-03    -43.6039E-03
            4102               1     76.5522E-03     77.1297E-03    -44.1532E-03    -44.5140E-03
            4103               1     76.5690E-03     76.7313E-03    -44.0706E-03    -44.2987E-03
            4104               1     76.3020E-03     74.2787E-03    -44.0338E-03    -42.7468E-03
            4105               1     80.0381E-03     77.7631E-03    -46.1385E-03    -44.8685E-03
            4106               1     78.2726E-03     77.0796E-03    -44.8038E-03    -44.3005E-03
            4107               1     73.7511E-03     73.0667E-03    -42.1339E-03    -41.9108E-03
            4108               1     71.7124E-03     69.3855E-03    -41.0842E-03    -39.8320E-03
            4109               1     68.8102E-03     68.8612E-03    -39.5184E-03    -39.6163E-03
            4110               1     67.8675E-03     66.7099E-03    -39.0158E-03    -38.3132E-03
            4111               1     66.5403E-03     67.6102E-03    -38.1155E-03    -38.5913E-03
            4112               1     67.6597E-03     66.6646E-03    -38.4374E-03    -37.8523E-03
            4113               1     66.2815E-03     69.1305E-03    -37.4746E-03    -38.2229E-03
            4114               1     71.6376E-03     69.9673E-03    -38.7196E-03    -39.0108E-03
            4115               1     67.2781E-03     67.8287E-03    -37.6125E-03    -36.4387E-03
            4116               1     87.7226E-03     86.1325E-03    -50.5161E-03    -49.2430E-03
            4117               1     83.8000E-03     82.5184E-03    -48.0106E-03    -47.3175E-03
            4118               1     78.2934E-03     76.3721E-03    -44.5768E-03    -43.6670E-03
            4119               1     74.5939E-03     72.4952E-03    -42.3255E-03    -41.2183E-03
            4120               1     71.0502E-03     70.3987E-03    -40.3748E-03    -39.9024E-03
            4121               1     68.2543E-03     69.0141E-03    -38.5495E-03    -38.7308E-03
            4122               1     67.7760E-03     67.5581E-03    -37.9167E-03    -37.7039E-03
            4123               1     64.0909E-03     69.0280E-03    -35.7347E-03    -36.8755E-03
            4124               1     70.6770E-03     68.1954E-03    -36.0826E-03    -36.7403E-03
            4125               1     62.5499E-03     66.8767E-03    -33.6217E-03    -32.5128E-03
            4126               1     95.6701E-03     95.5488E-03    -54.7397E-03    -53.4255E-03
            4127               1     90.0588E-03     88.0239E-03    -50.9927E-03    -49.9618E-03
            4128               1     82.9609E-03     80.5388E-03    -46.7873E-03    -45.3648E-03
            4129               1     77.9199E-03     75.3578E-03    -43.4277E-03    -42.0969E-03
            4130               1     73.2312E-03     72.6526E-03    -40.8311E-03    -40.1952E-03
            4131               1     69.1273E-03     70.6317E-03    -38.0931E-03    -38.4380E-03
            4132               1     67.9376E-03     68.1294E-03    -36.8145E-03    -36.8253E-03
            4133               1     62.0417E-03     69.8911E-03    -33.5242E-03    -35.1776E-03
            4134               1     71.2025E-03     67.1581E-03    -33.1006E-03    -34.0960E-03
            4135               1     58.9797E-03     68.6301E-03    -29.3981E-03    -28.3303E-03
            4136               1     64.9241E-03     67.0141E-03    -36.9560E-03    -37.5416E-03
            4137               1     65.2258E-03     63.1211E-03    -37.5079E-03    -36.3783E-03
            4138               1     64.6112E-03     62.5802E-03    -36.7013E-03    -35.9789E-03
            4139               1     63.5518E-03     66.8477E-03    -35.5315E-03    -36.4575E-03
            4140               1     75.3618E-03     74.4895E-03    -42.3210E-03    -41.2476E-03
            4141               1     73.6291E-03     70.0791E-03    -41.8182E-03    -39.6444E-03
            4142               1     66.0815E-03     63.9675E-03    -38.1360E-03    -36.5977E-03
            4143               1     62.4850E-03     62.8529E-03    -36.0427E-03    -36.1303E-03
            4144               1     60.2496E-03     60.1425E-03    -34.4751E-03    -34.4354E-03
            4145               1     59.5795E-03     60.7304E-03    -33.5320E-03    -34.2223E-03
            4146               1     59.7175E-03     60.4301E-03    -32.8139E-03    -33.0321E-03
            4147               1     61.0804E-03     62.2468E-03    -32.0303E-03    -33.2572E-03
            4148               1     63.1585E-03     65.2885E-03    -32.7301E-03    -31.9807E-03
            4149               1     68.7105E-03     65.4651E-03    -31.0015E-03    -31.7533E-03
            4150               1     64.8095E-03     72.9524E-03    -28.6540E-03    -30.3742E-03
            4151               1     85.7840E-03     81.6339E-03    -49.4977E-03    -47.0143E-03
            4152               1     81.6947E-03     76.2306E-03    -47.0824E-03    -43.3906E-03
            4153               1     71.8077E-03     68.7351E-03    -40.6278E-03    -38.8984E-03
            4154               1     68.0301E-03     67.5489E-03    -37.6843E-03    -37.1411E-03
            4155               1     65.5615E-03     65.5269E-03    -34.9597E-03    -35.1354E-03
            4156               1     64.9204E-03     65.9639E-03    -33.0822E-03    -33.3402E-03
            4157               1     65.2362E-03     66.2821E-03    -30.7142E-03    -32.4712E-03
            4158               1     66.1208E-03     70.6113E-03    -30.3889E-03    -30.1051E-03
            4159               1     71.9426E-03     67.3720E-03    -25.6637E-03    -28.1229E-03
            4160               1     64.8670E-03     77.7180E-03    -21.6643E-03    -24.9320E-03
            4161               1     98.2928E-03     92.0348E-03    -56.4561E-03    -52.5349E-03
            4162               1     93.0455E-03     84.9458E-03    -52.4371E-03    -47.2076E-03
            4163               1     79.8296E-03     76.3921E-03    -43.1876E-03    -41.0968E-03
            4164               1     75.9883E-03     74.6809E-03    -39.4269E-03    -38.3086E-03
            4165               1     72.7324E-03     72.5579E-03    -35.4291E-03    -35.5842E-03
            4166               1     71.8647E-03     73.1494E-03    -32.6128E-03    -32.8914E-03
            4167               1     72.2200E-03     72.9584E-03    -28.9716E-03    -31.3037E-03
            4168               1     72.0846E-03     78.9171E-03    -27.8291E-03    -27.9067E-03
            4169               1     80.0627E-03     72.8533E-03    -20.3090E-03    -24.3060E-03
            4170               1     70.2477E-03     86.8008E-03    -14.7059E-03    -19.4114E-03
            4171               1     86.1182E-03     94.4515E-03    -22.1320E-03    -24.4514E-03
            4172               1     81.0093E-03     85.1108E-03    -22.6027E-03    -23.3283E-03
            4173               1     94.3661E-03     94.5228E-03    -31.1600E-03    -31.8838E-03
            4174               1     87.1469E-03     91.4738E-03    -26.2711E-03    -27.1589E-03
            4175               1     95.3269E-03     99.6841E-03    -37.4306E-03    -38.1299E-03
            4176               1     93.7216E-03     95.7139E-03    -33.5545E-03    -33.4405E-03
            4177               1     100.901E-03     101.865E-03    -43.8153E-03    -43.9287E-03
            4178               1     96.1027E-03     99.2581E-03    -38.3218E-03    -38.5275E-03
            4179               1     102.200E-03     103.902E-03    -48.1785E-03    -48.1019E-03
            4180               1     100.512E-03     101.504E-03    -43.4591E-03    -42.8505E-03
            4181               1     106.272E-03     105.863E-03    -52.5954E-03    -51.7133E-03
            4182               1     102.508E-03     103.964E-03    -47.4822E-03    -46.9389E-03
            4183               1     109.129E-03     109.143E-03    -56.8323E-03    -55.9071E-03
            4184               1     105.076E-03     105.032E-03    -50.9750E-03    -49.9228E-03
            4185               1     112.956E-03     110.363E-03    -60.6685E-03    -58.5920E-03
            4186               1     106.393E-03     107.078E-03    -54.1670E-03    -53.4080E-03
            4187               1     115.984E-03     114.190E-03    -64.7163E-03    -62.7993E-03
            4188               1     103.692E-03     105.103E-03    -53.5099E-03    -54.5121E-03
            4189               1     109.194E-03     109.209E-03    -61.4632E-03    -62.3525E-03
            4190               1     110.149E-03     108.836E-03    -57.0428E-03    -57.8199E-03
            4191               1     78.2729E-03     86.2741E-03    -28.6872E-03    -30.7682E-03
            4192               1     70.7778E-03     74.8184E-03    -28.3427E-03    -29.0769E-03
            4193               1     87.2781E-03     86.7361E-03    -36.7527E-03    -37.0364E-03
            4194               1     76.0760E-03     79.6599E-03    -30.8109E-03    -31.7178E-03
            4195               1     88.0621E-03     90.6180E-03    -41.3036E-03    -41.5402E-03
            4196               1     83.1135E-03     83.8486E-03    -36.9899E-03    -36.7684E-03
            4197               1     92.7740E-03     92.9596E-03    -45.9848E-03    -45.9251E-03
            4198               1     85.1399E-03     86.8018E-03    -40.4306E-03    -40.4267E-03
            4199               1     93.7112E-03     94.3826E-03    -48.9147E-03    -48.7038E-03
            4200               1     88.8559E-03     88.7999E-03    -44.1296E-03    -43.5319E-03
            4201               1     96.6835E-03     95.8243E-03    -51.8593E-03    -51.1114E-03
            4202               1     90.3629E-03     90.6774E-03    -46.8117E-03    -46.2576E-03
            4203               1     98.7883E-03     98.3117E-03    -54.6628E-03    -53.9107E-03
            4204               1     91.9363E-03     91.2193E-03    -48.8661E-03    -48.0236E-03
            4205               1     101.009E-03     98.5242E-03    -56.7955E-03    -55.1816E-03
            4206               1     92.7271E-03     92.5581E-03    -50.7316E-03    -50.0801E-03
            4207               1     103.194E-03     101.290E-03    -59.1236E-03    -57.6467E-03
            4208               1     88.8398E-03     90.1769E-03    -48.9701E-03    -49.9532E-03
            4209               1     95.5577E-03     97.1948E-03    -54.9080E-03    -56.0357E-03
            4210               1     93.3969E-03     93.0885E-03    -51.3028E-03    -52.0713E-03
            4211               1     76.5077E-03     83.6472E-03    -35.6486E-03    -37.4964E-03
            4212               1     67.7346E-03     71.2833E-03    -34.5755E-03    -35.3588E-03
            4213               1     85.9826E-03     84.6789E-03    -42.8409E-03    -42.6408E-03
            4214               1     71.1988E-03     74.0599E-03    -35.7425E-03    -36.7562E-03
            4215               1     86.3194E-03     87.0979E-03    -45.6875E-03    -45.4707E-03
            4216               1     78.4158E-03     78.1572E-03    -40.9988E-03    -40.7011E-03
            4217               1     89.3453E-03     89.1173E-03    -48.6033E-03    -48.4629E-03
            4218               1     79.6783E-03     80.1201E-03    -42.9259E-03    -42.8488E-03
            4219               1     89.6634E-03     89.5023E-03    -49.9932E-03    -49.7176E-03
            4220               1     82.5877E-03     81.9568E-03    -45.4639E-03    -44.9512E-03
            4221               1     91.0775E-03     90.6693E-03    -51.5381E-03    -51.2217E-03
            4222               1     82.9145E-03     82.4686E-03    -46.4092E-03    -46.0004E-03
            4223               1     91.6784E-03     90.8563E-03    -52.4295E-03    -51.9101E-03
            4224               1     84.3462E-03     83.4139E-03    -47.8285E-03    -47.1511E-03
            4225               1     92.9422E-03     92.0305E-03    -53.5380E-03    -52.9169E-03
            4226               1     83.7073E-03     82.9572E-03    -47.8700E-03    -47.3855E-03
            4227               1     93.1301E-03     91.3977E-03    -53.7512E-03    -52.6876E-03
            4228               1     83.7658E-03     82.8445E-03    -48.2133E-03    -47.6099E-03
            4229               1     94.1595E-03     92.0793E-03    -54.0094E-03    -52.9058E-03
            4230               1     78.2201E-03     79.9501E-03    -45.0934E-03    -46.1410E-03
            4231               1     85.5982E-03     89.3974E-03    -48.7072E-03    -50.1065E-03
            4232               1     79.8042E-03     80.9155E-03    -45.9354E-03    -46.7077E-03
            4233               1     69.2698E-03     73.1865E-03    -39.0222E-03    -40.2266E-03
            4234               1     61.8214E-03     62.6607E-03    -35.6404E-03    -35.7706E-03
            4235               1     76.5814E-03     73.7279E-03    -43.7910E-03    -42.3005E-03
            4236               1     61.9217E-03     62.1714E-03    -35.6527E-03    -35.6308E-03
            4237               1     76.7659E-03     74.1022E-03    -44.2616E-03    -42.7700E-03
            4238               1     62.3355E-03     62.2711E-03    -35.9272E-03    -35.9350E-03
            4239               1     70.1694E-03     73.2772E-03    -40.2130E-03    -41.3665E-03
            4240               1     63.3886E-03     63.5335E-03    -36.4895E-03    -36.6665E-03
            4241               1     215.264E-03     216.368E-03     8.92362E-03     7.76525E-03
            4242               1     217.480E-03     218.556E-03    -29.9692E-03    -29.6573E-03
            4243               1     192.663E-03     193.099E-03    -33.2804E-03    -33.2154E-03
            4244               1     173.131E-03     174.649E-03    -35.9377E-03    -36.1192E-03
            4245               1     152.009E-03     152.465E-03    -36.4364E-03    -36.2452E-03
            4246               1     130.885E-03     132.124E-03    -36.4709E-03    -36.6187E-03
            4247               1     111.221E-03     111.840E-03    -36.6253E-03    -36.5187E-03
            4248               1     92.7526E-03     93.6554E-03    -36.5551E-03    -36.6190E-03
            4249               1     77.4053E-03     77.9173E-03    -36.6119E-03    -36.5668E-03
            4250               1     66.7041E-03     67.1019E-03    -36.5738E-03    -36.6071E-03
            4251               1     63.4729E-03     63.3503E-03    -36.6162E-03    -36.5651E-03
            4252               1     68.4313E-03     68.1926E-03    -36.5486E-03    -36.6328E-03
            4253               1     80.5614E-03     79.5966E-03    -36.6704E-03    -36.5106E-03
            4254               1     96.3670E-03     96.0926E-03    -36.4569E-03    -36.7236E-03
            4255               1     115.820E-03     114.041E-03    -36.8010E-03    -36.3735E-03
            4256               1     134.966E-03     135.333E-03    -36.2799E-03    -36.8903E-03
            4257               1     157.680E-03     154.803E-03    -36.9344E-03    -36.1509E-03
            4258               1     177.407E-03     178.763E-03    -36.1267E-03    -36.9282E-03
            4259               1     201.235E-03     197.647E-03    -36.1422E-03    -35.7202E-03
            4260               1     265.337E-03     260.020E-03    -51.4110E-03    -50.6016E-03
            4261               1     217.116E-03     212.587E-03    -39.8029E-03    -39.9175E-03
            4262               1     195.896E-03     190.345E-03    -29.4822E-03    -29.6472E-03
            4263               1     171.461E-03     166.829E-03    -28.6433E-03    -28.4000E-03
            4264               1     149.461E-03     144.249E-03    -27.6606E-03    -27.8779E-03
            4265               1     127.175E-03     122.445E-03    -27.7615E-03    -27.5920E-03
            4266               1     105.893E-03     101.169E-03    -27.5658E-03    -27.6768E-03
            4267               1     85.5866E-03     81.2700E-03    -27.6503E-03    -27.5765E-03
            4268               1     67.4124E-03     63.8203E-03    -27.5877E-03    -27.6308E-03
            4269               1     53.5625E-03     51.3488E-03    -27.6286E-03    -27.5887E-03
            4270               1     47.7817E-03     48.0876E-03    -27.5845E-03    -27.6322E-03
            4271               1     53.0509E-03     55.4308E-03    -27.6536E-03    -27.5630E-03
            4272               1     66.5133E-03     70.3879E-03    -27.5298E-03    -27.6870E-03
            4273               1     84.5813E-03     89.0068E-03    -27.7468E-03    -27.4716E-03
            4274               1     104.859E-03     109.441E-03    -27.3952E-03    -27.8247E-03
            4275               1     125.894E-03     131.311E-03    -27.9351E-03    -27.3075E-03
            4276               1     148.642E-03     152.740E-03    -27.2266E-03    -28.0281E-03
            4277               1     169.782E-03     176.467E-03    -28.2103E-03    -27.3621E-03
            4278               1     194.697E-03     197.666E-03    -27.5680E-03    -28.0620E-03
            4279               1     230.850E-03     238.820E-03     15.7811E-03     12.2368E-03
            4280               1     199.138E-03     201.424E-03     5.55998E-03     3.65937E-03
            4281               1     193.225E-03     193.131E-03    -20.3122E-03    -20.1184E-03
            4282               1     174.626E-03     174.612E-03    -26.0707E-03    -26.5717E-03
            4283               1     163.378E-03     162.574E-03    -39.3105E-03    -39.1540E-03
            4284               1     141.984E-03     141.496E-03    -41.3776E-03    -41.4103E-03
            4285               1     127.868E-03     127.382E-03    -46.8937E-03    -46.8619E-03
            4286               1     110.110E-03     109.738E-03    -47.7384E-03    -47.7332E-03
            4287               1     98.9444E-03     98.6863E-03    -50.0777E-03    -50.0775E-03
            4288               1     89.7188E-03     89.5859E-03    -50.2750E-03    -50.2715E-03
            4289               1     88.6827E-03     88.7195E-03    -51.1474E-03    -51.1531E-03
            4290               1     92.8877E-03     93.0498E-03    -50.7623E-03    -50.7580E-03
            4291               1     104.150E-03     104.466E-03    -50.7792E-03    -50.7848E-03
            4292               1     118.259E-03     118.596E-03    -49.5196E-03    -49.5145E-03
            4293               1     136.466E-03     136.849E-03    -48.7503E-03    -48.7103E-03
            4294               1     154.029E-03     154.478E-03    -45.6867E-03    -45.7520E-03
            4295               1     175.116E-03     174.869E-03    -43.8059E-03    -43.3801E-03
            4296               1     191.358E-03     192.547E-03    -36.2475E-03    -37.1172E-03
            4297               1     211.923E-03     210.825E-03    -31.8758E-03    -30.4127E-03
            4298               1     241.460E-03     229.410E-03    -11.9629E-03    -12.2854E-03
            4299               1     239.794E-03     237.581E-03    -10.5365E-03    -11.9329E-03
            4300               1     208.877E-03     208.411E-03    -17.8374E-03    -19.4022E-03
            4301               1     195.144E-03     193.009E-03    -32.0704E-03    -31.8510E-03
            4302               1     163.759E-03     162.936E-03    -33.2431E-03    -33.4125E-03
            4303               1     146.097E-03     144.667E-03    -38.0346E-03    -37.9751E-03
            4304               1     121.214E-03     120.040E-03    -38.6962E-03    -38.6538E-03
            4305               1     103.882E-03     102.836E-03    -40.7281E-03    -40.7439E-03
            4306               1     86.2032E-03     85.3530E-03    -41.0307E-03    -40.9987E-03
            4307               1     76.1283E-03     75.7532E-03    -41.8703E-03    -41.9010E-03
            4308               1     72.5814E-03     72.6072E-03    -41.8528E-03    -41.8188E-03
            4309               1     78.6581E-03     79.2881E-03    -42.0564E-03    -42.1031E-03
            4310               1     91.2625E-03     92.0804E-03    -41.6596E-03    -41.6014E-03
            4311               1     109.299E-03     110.439E-03    -41.3908E-03    -41.4560E-03
            4312               1     128.776E-03     130.011E-03    -40.3208E-03    -40.2289E-03
            4313               1     152.119E-03     153.059E-03    -39.5868E-03    -39.4927E-03
            4314               1     172.498E-03     174.918E-03    -36.8057E-03    -37.0460E-03
            4315               1     200.366E-03     199.653E-03    -35.8797E-03    -34.7567E-03
            4316               1     218.094E-03     222.556E-03    -27.4606E-03    -29.8851E-03
            4317               1     240.382E-03     239.847E-03    -13.3303E-03    -12.1319E-03
            4318               1     252.407E-03     245.667E-03    -25.6888E-03    -25.7311E-03
            4319               1     236.137E-03     231.552E-03    -34.8519E-03    -34.8745E-03
            4320               1     192.205E-03     190.764E-03    -34.0532E-03    -34.0399E-03
            4321               1     172.297E-03     169.742E-03    -34.1390E-03    -34.1745E-03
            4322               1     141.491E-03     139.626E-03    -33.7333E-03    -33.6911E-03
            4323               1     119.926E-03     117.892E-03    -33.5126E-03    -33.5550E-03
            4324               1     95.5874E-03     93.7280E-03    -33.4764E-03    -33.4364E-03
            4325               1     76.9049E-03     75.4308E-03    -33.3980E-03    -33.4390E-03
            4326               1     62.4355E-03     61.5275E-03    -33.4332E-03    -33.3897E-03
            4327               1     57.8906E-03     58.1396E-03    -33.3817E-03    -33.4336E-03
            4328               1     64.9195E-03     65.9260E-03    -33.4406E-03    -33.3772E-03
            4329               1     80.4012E-03     82.1301E-03    -33.3706E-03    -33.4521E-03
            4330               1     100.418E-03     102.305E-03    -33.4738E-03    -33.3715E-03
            4331               1     123.762E-03     125.810E-03    -33.3912E-03    -33.5179E-03
            4332               1     146.709E-03     149.354E-03    -33.5787E-03    -33.4357E-03
            4333               1     174.437E-03     175.817E-03    -33.6345E-03    -33.7865E-03
            4334               1     196.318E-03     201.129E-03    -33.7792E-03    -33.5940E-03
            4335               1     231.544E-03     230.910E-03    -34.1367E-03    -34.1801E-03
            4336               1     279.538E-03     268.812E-03    -13.8806E-03    -14.0587E-03
            4337               1     272.248E-03     267.307E-03    -48.7159E-03    -47.1164E-03
            4338               1     220.408E-03     216.914E-03    -46.1803E-03    -44.6635E-03
            4339               1     196.912E-03     193.299E-03    -35.5065E-03    -35.7547E-03
            4340               1     163.961E-03     161.242E-03    -33.9545E-03    -33.7269E-03
            4341               1     140.108E-03     137.040E-03    -29.0755E-03    -29.2036E-03
            4342               1     112.882E-03     110.024E-03    -28.2887E-03    -28.2642E-03
            4343               1     89.3574E-03     86.5907E-03    -26.1078E-03    -26.1582E-03
            4344               1     66.8613E-03     64.4474E-03    -25.8387E-03    -25.8054E-03
            4345               1     49.4035E-03     47.9694E-03    -24.9143E-03    -24.9560E-03
            4346               1     43.3987E-03     43.6367E-03    -25.0074E-03    -24.9581E-03
            4347               1     51.5736E-03     53.5291E-03    -24.7091E-03    -24.7673E-03
            4348               1     70.2056E-03     72.7400E-03    -25.2290E-03    -25.1557E-03
            4349               1     92.6584E-03     95.5546E-03    -25.3611E-03    -25.4640E-03
            4350               1     116.697E-03     119.787E-03    -26.6423E-03    -26.5290E-03
            4351               1     142.767E-03     145.666E-03    -27.2407E-03    -27.5756E-03
            4352               1     167.305E-03     171.159E-03    -30.2795E-03    -29.7864E-03
            4353               1     196.844E-03     199.136E-03    -31.2090E-03    -32.5499E-03
            4354               1     221.001E-03     225.317E-03    -38.8058E-03    -36.3010E-03
            4355               1     327.981E-03     330.440E-03    -53.0100E-03    -50.6143E-03
            4356               1     243.805E-03     241.545E-03    -61.6650E-03    -59.6926E-03
            4357               1     210.087E-03     206.678E-03    -39.2205E-03    -39.4633E-03
            4358               1     183.011E-03     179.135E-03    -37.9733E-03    -37.4008E-03
            4359               1     156.902E-03     152.731E-03    -26.5469E-03    -26.7540E-03
            4360               1     131.403E-03     127.428E-03    -25.0823E-03    -25.0138E-03
            4361               1     106.086E-03     102.097E-03    -19.8275E-03    -19.8886E-03
            4362               1     81.4113E-03     77.6069E-03    -19.0344E-03    -19.0150E-03
            4363               1     57.2301E-03     53.6830E-03    -16.6884E-03    -16.7122E-03
            4364               1     36.9560E-03     34.4357E-03    -16.5083E-03    -16.4880E-03
            4365               1     27.1286E-03     27.8203E-03    -15.6079E-03    -15.6301E-03
            4366               1     39.5054E-03     42.5691E-03    -16.0226E-03    -15.9936E-03
            4367               1     60.6658E-03     64.3934E-03    -15.9703E-03    -16.0073E-03
            4368               1     84.9553E-03     88.9128E-03    -17.2730E-03    -17.2245E-03
            4369               1     109.895E-03     113.800E-03    -17.9755E-03    -18.0842E-03
            4370               1     135.082E-03     139.157E-03    -21.0338E-03    -20.8804E-03
            4371               1     160.830E-03     164.389E-03    -22.5925E-03    -23.1251E-03
            4372               1     185.964E-03     189.971E-03    -29.7091E-03    -28.7717E-03
            4373               1     212.587E-03     215.840E-03    -32.0058E-03    -33.6141E-03
            4374               1     85.5889E-03     87.7842E-03    -24.6829E-03    -24.3224E-03
            4375               1     88.6576E-03     91.9569E-03    -24.7134E-03    -24.7620E-03
            4376               1     94.3101E-03     97.3728E-03    -25.6302E-03    -25.3163E-03
            4377               1     99.6412E-03     103.566E-03    -26.0234E-03    -25.9563E-03
            4378               1     106.122E-03     110.153E-03    -26.8853E-03    -26.7092E-03
            4379               1     112.545E-03     117.050E-03    -27.7534E-03    -27.7014E-03
            4380               1     119.467E-03     124.067E-03    -28.8180E-03    -28.7399E-03
            4381               1     126.417E-03     131.237E-03    -30.2120E-03    -30.1792E-03
            4382               1     133.521E-03     138.383E-03    -31.5399E-03    -31.5164E-03
            4383               1     140.779E-03     145.738E-03    -33.5356E-03    -33.5014E-03
            4384               1     148.043E-03     153.007E-03    -35.1037E-03    -35.1183E-03
            4385               1     155.758E-03     160.772E-03    -37.8753E-03    -37.8194E-03
            4386               1     163.552E-03     168.531E-03    -39.5144E-03    -39.5892E-03
            4387               1     172.594E-03     177.595E-03    -43.5185E-03    -43.4105E-03
            4388               1     182.348E-03     187.251E-03    -44.7507E-03    -44.9684E-03
            4389               1     195.689E-03     200.543E-03    -51.5275E-03    -51.2641E-03
            4390               1     213.277E-03     218.003E-03    -51.1411E-03    -51.7143E-03
            4391               1     242.261E-03     246.682E-03    -67.6345E-03    -66.8636E-03
            4392               1     327.325E-03     331.921E-03    -56.5938E-03    -58.0757E-03
            4393               1     87.2687E-03     91.1784E-03    -26.8035E-03    -27.0118E-03
            4394               1     92.2524E-03     94.8804E-03    -27.5667E-03    -26.9530E-03
            4395               1     96.5025E-03     100.054E-03    -27.7269E-03    -27.5427E-03
            4396               1     102.956E-03     106.082E-03    -28.5550E-03    -28.0275E-03
            4397               1     108.926E-03     112.707E-03    -29.0798E-03    -28.9061E-03
            4398               1     116.008E-03     119.700E-03    -30.0155E-03    -29.7299E-03
            4399               1     122.786E-03     126.816E-03    -31.0256E-03    -30.9226E-03
            4400               1     130.172E-03     134.199E-03    -32.1628E-03    -32.0459E-03
            4401               1     137.335E-03     141.501E-03    -33.7105E-03    -33.6355E-03
            4402               1     144.988E-03     149.170E-03    -35.1039E-03    -35.0868E-03
            4403               1     152.414E-03     156.630E-03    -37.2913E-03    -37.2006E-03
            4404               1     160.690E-03     164.924E-03    -38.9412E-03    -39.0160E-03
            4405               1     168.561E-03     172.778E-03    -41.9502E-03    -41.8255E-03
            4406               1     178.765E-03     182.958E-03    -43.7053E-03    -43.9366E-03
            4407               1     187.863E-03     192.056E-03    -47.7849E-03    -47.6375E-03
            4408               1     204.719E-03     208.620E-03    -49.2285E-03    -49.7382E-03
            4409               1     216.557E-03     220.707E-03    -53.6901E-03    -53.6061E-03
            4410               1     264.445E-03     266.951E-03    -54.2800E-03    -55.1407E-03
            4411               1     267.140E-03     270.171E-03    -15.5050E-03    -17.7286E-03
            4412               1     92.2488E-03     95.3971E-03    -30.5115E-03    -30.5085E-03
            4413               1     94.7698E-03     98.2468E-03    -30.2985E-03    -30.0773E-03
            4414               1     100.184E-03     102.896E-03    -30.4525E-03    -29.8346E-03
            4415               1     105.325E-03     108.750E-03    -30.5960E-03    -30.3500E-03
            4416               1     112.272E-03     115.284E-03    -31.2751E-03    -30.8288E-03
            4417               1     118.680E-03     122.133E-03    -31.8853E-03    -31.7299E-03
            4418               1     126.165E-03     129.452E-03    -32.7889E-03    -32.5685E-03
            4419               1     133.145E-03     136.637E-03    -33.8573E-03    -33.7600E-03
            4420               1     140.975E-03     144.418E-03    -34.9857E-03    -34.9135E-03
            4421               1     148.229E-03     151.740E-03    -36.5313E-03    -36.4381E-03
            4422               1     156.658E-03     160.165E-03    -37.9583E-03    -37.9918E-03
            4423               1     164.055E-03     167.580E-03    -39.9927E-03    -39.8773E-03
            4424               1     173.980E-03     177.492E-03    -41.7432E-03    -41.9122E-03
            4425               1     181.412E-03     185.003E-03    -43.9647E-03    -43.8758E-03
            4426               1     195.413E-03     198.805E-03    -45.7599E-03    -46.1546E-03
            4427               1     202.419E-03     206.264E-03    -45.9811E-03    -46.1672E-03
            4428               1     228.130E-03     230.900E-03    -46.5769E-03    -47.2161E-03
            4429               1     232.716E-03     236.891E-03    -27.0493E-03    -28.7650E-03
            4430               1     233.095E-03     237.912E-03    -11.7431E-03    -11.8260E-03
            4431               1     96.8008E-03     99.0843E-03    -35.6513E-03    -35.1317E-03
            4432               1     98.7276E-03     101.455E-03    -33.6172E-03    -33.2850E-03
            4433               1     102.668E-03     105.817E-03    -33.0573E-03    -32.7543E-03
            4434               1     108.759E-03     111.400E-03    -33.0242E-03    -32.5983E-03
            4435               1     114.552E-03     117.640E-03    -33.1654E-03    -33.0054E-03
            4436               1     121.839E-03     124.555E-03    -33.7092E-03    -33.4548E-03
            4437               1     128.476E-03     131.437E-03    -34.3011E-03    -34.2120E-03
            4438               1     136.231E-03     139.020E-03    -35.0793E-03    -34.9722E-03
            4439               1     143.250E-03     146.140E-03    -36.0073E-03    -35.9334E-03
            4440               1     151.539E-03     154.363E-03    -37.0294E-03    -37.0228E-03
            4441               1     158.704E-03     161.576E-03    -38.2144E-03    -38.1238E-03
            4442               1     168.052E-03     170.879E-03    -39.5677E-03    -39.6560E-03
            4443               1     175.040E-03     177.987E-03    -40.6203E-03    -40.5400E-03
            4444               1     186.627E-03     189.458E-03    -42.2047E-03    -42.4394E-03
            4445               1     192.523E-03     195.788E-03    -41.3052E-03    -41.4584E-03
            4446               1     208.037E-03     210.830E-03    -41.8719E-03    -42.2864E-03
            4447               1     211.289E-03     215.188E-03    -31.2182E-03    -32.3481E-03
            4448               1     216.871E-03     220.521E-03    -23.3410E-03    -23.5791E-03
            4449               1     216.618E-03     219.722E-03    -4.68574E-03    -6.36685E-03
            4450               1     99.4742E-03     101.954E-03    -39.5456E-03    -39.2630E-03
            4451               1     101.806E-03     104.256E-03    -37.2988E-03    -36.8653E-03
            4452               1     106.008E-03     108.503E-03    -35.9075E-03    -35.6585E-03
            4453               1     110.959E-03     113.756E-03    -35.3187E-03    -35.2078E-03
            4454               1     117.644E-03     119.973E-03    -35.2711E-03    -35.1111E-03
            4455               1     123.764E-03     126.312E-03    -35.3662E-03    -35.3365E-03
            4456               1     131.173E-03     133.413E-03    -35.7104E-03    -35.6338E-03
            4457               1     137.805E-03     140.153E-03    -36.0746E-03    -36.0475E-03
            4458               1     145.704E-03     147.907E-03    -36.5997E-03    -36.5874E-03
            4459               1     152.571E-03     154.827E-03    -37.0582E-03    -37.0078E-03
            4460               1     161.205E-03     163.380E-03    -37.7959E-03    -37.8375E-03
            4461               1     168.031E-03     170.305E-03    -38.0189E-03    -37.9501E-03
            4462               1     177.865E-03     180.035E-03    -38.9710E-03    -39.0737E-03
            4463               1     183.951E-03     186.457E-03    -37.7787E-03    -37.7902E-03
            4464               1     194.970E-03     197.340E-03    -38.3397E-03    -38.5428E-03
            4465               1     198.483E-03     201.591E-03    -32.0156E-03    -32.5568E-03
            4466               1     204.101E-03     207.283E-03    -28.3257E-03    -28.5305E-03
            4467               1     203.232E-03     206.642E-03    -14.7377E-03    -16.1071E-03
            4468               1     198.166E-03     202.519E-03    -3.17942E-03    -3.14275E-03
            4469               1     102.360E-03     103.758E-03    -43.3498E-03    -42.7099E-03
            4470               1     104.390E-03     106.719E-03    -40.4956E-03    -40.3584E-03
            4471               1     108.268E-03     110.654E-03    -38.7031E-03    -38.6643E-03
            4472               1     114.000E-03     116.083E-03    -37.8280E-03    -37.8931E-03
            4473               1     119.495E-03     121.660E-03    -37.3542E-03    -37.4376E-03
            4474               1     126.295E-03     128.079E-03    -37.1680E-03    -37.2191E-03
            4475               1     132.393E-03     134.244E-03    -37.0229E-03    -37.0775E-03
            4476               1     139.683E-03     141.321E-03    -37.0252E-03    -37.0610E-03
            4477               1     146.072E-03     147.748E-03    -36.8705E-03    -36.8779E-03
            4478               1     153.889E-03     155.457E-03    -36.9465E-03    -36.9870E-03
            4479               1     160.376E-03     161.999E-03    -36.4968E-03    -36.4660E-03
            4480               1     168.852E-03     170.368E-03    -36.6209E-03    -36.6643E-03
            4481               1     175.059E-03     176.773E-03    -35.1637E-03    -35.1220E-03
            4482               1     183.802E-03     185.388E-03    -35.0925E-03    -35.1096E-03
            4483               1     188.684E-03     190.797E-03    -30.8011E-03    -30.8683E-03
            4484               1     194.195E-03     196.625E-03    -29.2504E-03    -29.2568E-03
            4485               1     194.428E-03     197.175E-03    -20.1519E-03    -20.8159E-03
            4486               1     190.427E-03     194.332E-03    -13.3964E-03    -13.2446E-03
            4487               1     185.627E-03     188.669E-03     619.936E-06    -832.396E-06
            4488               1     104.147E-03     105.903E-03    -46.6049E-03    -46.2934E-03
            4489               1     106.240E-03     108.207E-03    -43.1744E-03    -43.3113E-03
            4490               1     111.217E-03     113.048E-03    -41.5702E-03    -41.8936E-03
            4491               1     116.040E-03     117.751E-03    -40.4306E-03    -40.6843E-03
            4492               1     122.061E-03     123.423E-03    -39.6595E-03    -39.9210E-03
            4493               1     127.546E-03     128.877E-03    -39.0439E-03    -39.2138E-03
            4494               1     134.049E-03     135.144E-03    -38.5313E-03    -38.6702E-03
            4495               1     139.811E-03     140.911E-03    -37.8722E-03    -37.9509E-03
            4496               1     146.714E-03     147.698E-03    -37.3529E-03    -37.4301E-03
            4497               1     152.604E-03     153.604E-03    -36.3506E-03    -36.3692E-03
            4498               1     159.881E-03     160.797E-03    -35.6906E-03    -35.7380E-03
            4499               1     165.707E-03     166.699E-03    -33.8857E-03    -33.8646E-03
            4500               1     172.952E-03     173.814E-03    -32.8906E-03    -32.8690E-03
            4501               1     178.306E-03     179.418E-03    -29.3396E-03    -29.2694E-03
            4502               1     183.536E-03     184.635E-03    -27.5201E-03    -27.3086E-03
            4503               1     187.171E-03     188.746E-03    -21.0936E-03    -20.9036E-03
            4504               1     185.701E-03     188.721E-03    -18.0733E-03    -17.7904E-03
            4505               1     181.227E-03     183.438E-03    -8.00414E-03    -8.66752E-03
            4506               1     170.453E-03     175.034E-03     1.40851E-03     2.13767E-03
            4507               1     104.658E-03     106.262E-03    -48.2428E-03    -48.6676E-03
            4508               1     109.451E-03     110.886E-03    -46.2444E-03    -46.8492E-03
            4509               1     113.606E-03     114.715E-03    -44.5470E-03    -45.0062E-03
            4510               1     118.847E-03     119.710E-03    -43.2361E-03    -43.7406E-03
            4511               1     123.718E-03     124.410E-03    -42.2020E-03    -42.4923E-03
            4512               1     129.314E-03     129.833E-03    -41.1966E-03    -41.4687E-03
            4513               1     134.393E-03     134.866E-03    -40.1356E-03    -40.2838E-03
            4514               1     140.315E-03     140.700E-03    -39.1312E-03    -39.2631E-03
            4515               1     145.461E-03     145.838E-03    -37.7096E-03    -37.7720E-03
            4516               1     151.595E-03     151.929E-03    -36.4593E-03    -36.5307E-03
            4517               1     156.655E-03     157.000E-03    -34.3153E-03    -34.3329E-03
            4518               1     162.639E-03     162.909E-03    -32.5452E-03    -32.5606E-03
            4519               1     167.414E-03     167.742E-03    -29.1103E-03    -29.0781E-03
            4520               1     172.065E-03     172.253E-03    -26.3978E-03    -26.2378E-03
            4521               1     176.289E-03     176.611E-03    -21.0164E-03    -20.7904E-03
            4522               1     176.832E-03     177.307E-03    -17.0367E-03    -16.4139E-03
            4523               1     179.838E-03     180.617E-03    -9.50699E-03    -8.56592E-03
            4524               1     170.662E-03     175.188E-03    -6.47700E-03    -5.73142E-03
            4525               1     159.381E-03     160.650E-03     5.34419E-03     4.05742E-03
            4526               1     108.989E-03     109.597E-03    -51.4654E-03    -52.3166E-03
            4527               1     112.576E-03     112.768E-03    -49.5706E-03    -50.2082E-03
            4528               1     116.988E-03     117.036E-03    -47.8011E-03    -48.4528E-03
            4529               1     121.241E-03     121.062E-03    -46.4238E-03    -46.7816E-03
            4530               1     125.863E-03     125.662E-03    -44.9631E-03    -45.3164E-03
            4531               1     130.275E-03     130.008E-03    -43.5773E-03    -43.7587E-03
            4532               1     135.209E-03     134.940E-03    -42.1945E-03    -42.3599E-03
            4533               1     139.624E-03     139.340E-03    -40.4947E-03    -40.5765E-03
            4534               1     144.688E-03     144.416E-03    -38.8863E-03    -38.9673E-03
            4535               1     148.893E-03     148.611E-03    -36.5262E-03    -36.5610E-03
            4536               1     153.715E-03     153.436E-03    -34.3295E-03    -34.3735E-03
            4537               1     157.449E-03     157.155E-03    -30.8594E-03    -30.8686E-03
            4538               1     161.244E-03     160.887E-03    -27.5723E-03    -27.5418E-03
            4539               1     164.288E-03     163.871E-03    -22.5030E-03    -22.4287E-03
            4540               1     165.511E-03     164.919E-03    -17.4520E-03    -17.1510E-03
            4541               1     168.003E-03     167.166E-03    -10.5984E-03    -10.1104E-03
            4542               1     164.009E-03     163.198E-03    -3.36801E-03    -2.21819E-03
            4543               1     168.794E-03     167.835E-03     4.73019E-03     7.27589E-03
            4544               1     145.849E-03     154.360E-03     6.86409E-03     8.79006E-03
            4545               1     114.134E-03     112.304E-03    -55.7428E-03    -56.0770E-03
            4546               1     116.869E-03     115.359E-03    -53.2551E-03    -53.7100E-03
            4547               1     120.392E-03     118.849E-03    -51.5643E-03    -51.7460E-03
            4548               1     123.875E-03     122.614E-03    -49.6226E-03    -49.8550E-03
            4549               1     127.625E-03     126.422E-03    -47.9401E-03    -48.0352E-03
            4550               1     131.623E-03     130.584E-03    -46.2496E-03    -46.3568E-03
            4551               1     135.441E-03     134.435E-03    -44.3926E-03    -44.4374E-03
            4552               1     139.601E-03     138.683E-03    -42.6224E-03    -42.6700E-03
            4553               1     143.136E-03     142.216E-03    -40.2341E-03    -40.2540E-03
            4554               1     146.992E-03     146.133E-03    -37.9764E-03    -38.0017E-03
            4555               1     149.805E-03     148.920E-03    -34.6015E-03    -34.6119E-03
            4556               1     152.689E-03     151.852E-03    -31.3039E-03    -31.3147E-03
            4557               1     154.299E-03     153.395E-03    -26.4443E-03    -26.4403E-03
            4558               1     155.242E-03     154.309E-03    -21.3018E-03    -21.2630E-03
            4559               1     155.283E-03     154.100E-03    -14.6124E-03    -14.5223E-03
            4560               1     153.239E-03     151.691E-03    -6.39698E-03    -6.16759E-03
            4561               1     152.176E-03     149.627E-03     1.95852E-03     2.48025E-03
            4562               1     147.406E-03     143.307E-03     16.0342E-03     17.1271E-03
            4563               1     156.291E-03     147.388E-03     22.7675E-03     27.4109E-03
            4564               1     73.0905E-03     75.0491E-03    -29.8595E-03    -29.6148E-03
            4565               1     73.3964E-03     76.2213E-03    -29.4704E-03    -29.5867E-03
            4566               1     76.2567E-03     78.6362E-03    -29.9526E-03    -29.7213E-03
            4567               1     78.7094E-03     81.7858E-03    -29.9566E-03    -29.9394E-03
            4568               1     82.3418E-03     85.4182E-03    -30.3944E-03    -30.2636E-03
            4569               1     85.9931E-03     89.4664E-03    -30.8361E-03    -30.8106E-03
            4570               1     90.1408E-03     93.6823E-03    -31.4138E-03    -31.3561E-03
            4571               1     94.4724E-03     98.2038E-03    -32.2804E-03    -32.2610E-03
            4572               1     98.8735E-03     102.662E-03    -32.9889E-03    -32.9727E-03
            4573               1     103.643E-03     107.512E-03    -34.2757E-03    -34.2515E-03
            4574               1     108.204E-03     112.120E-03    -35.0200E-03    -35.0339E-03
            4575               1     113.500E-03     117.445E-03    -36.7801E-03    -36.7352E-03
            4576               1     118.447E-03     122.436E-03    -37.3361E-03    -37.3977E-03
            4577               1     125.005E-03     128.989E-03    -39.8157E-03    -39.7192E-03
            4578               1     131.473E-03     135.517E-03    -39.7277E-03    -39.8941E-03
            4579               1     141.879E-03     145.873E-03    -44.0057E-03    -43.7480E-03
            4580               1     154.774E-03     158.953E-03    -42.2911E-03    -42.6819E-03
            4581               1     178.704E-03     182.773E-03    -53.6897E-03    -52.8652E-03
            4582               1     246.763E-03     252.044E-03    -43.3669E-03    -43.8279E-03
            4583               1     74.0384E-03     77.1082E-03    -30.9138E-03    -31.2292E-03
            4584               1     76.1930E-03     78.0177E-03    -31.2340E-03    -30.8288E-03
            4585               1     77.6612E-03     80.3334E-03    -31.0726E-03    -31.0277E-03
            4586               1     81.2354E-03     83.4220E-03    -31.5331E-03    -31.1532E-03
            4587               1     84.3631E-03     87.1784E-03    -31.7270E-03    -31.6412E-03
            4588               1     88.5946E-03     91.2893E-03    -32.2758E-03    -32.0681E-03
            4589               1     92.6299E-03     95.6557E-03    -32.8871E-03    -32.8288E-03
            4590               1     97.2064E-03     100.232E-03    -33.5515E-03    -33.4676E-03
            4591               1     101.738E-03     104.898E-03    -34.5732E-03    -34.5242E-03
            4592               1     106.563E-03     109.767E-03    -35.3410E-03    -35.3325E-03
            4593               1     111.449E-03     114.674E-03    -36.7977E-03    -36.7294E-03
            4594               1     116.725E-03     120.027E-03    -37.5942E-03    -37.6581E-03
            4595               1     122.129E-03     125.383E-03    -39.5539E-03    -39.4449E-03
            4596               1     128.808E-03     132.157E-03    -40.1716E-03    -40.3519E-03
            4597               1     135.478E-03     138.752E-03    -42.7294E-03    -42.5564E-03
            4598               1     147.329E-03     150.548E-03    -42.7902E-03    -43.1336E-03
            4599               1     156.778E-03     160.052E-03    -45.3031E-03    -45.0415E-03
            4600               1     193.826E-03     195.858E-03    -44.4449E-03    -44.7379E-03
            4601               1     198.315E-03     199.420E-03    -11.7769E-03    -13.3088E-03
            4602               1     78.2114E-03     80.2723E-03    -33.4668E-03    -33.5351E-03
            4603               1     78.1222E-03     80.4451E-03    -32.9562E-03    -32.8726E-03
            4604               1     80.5428E-03     82.2101E-03    -32.8016E-03    -32.3632E-03
            4605               1     82.8631E-03     85.2503E-03    -32.7027E-03    -32.5817E-03
            4606               1     86.9072E-03     88.9122E-03    -33.0962E-03    -32.7727E-03
            4607               1     90.5215E-03     92.9915E-03    -33.4372E-03    -33.3530E-03
            4608               1     95.1494E-03     97.4741E-03    -34.0133E-03    -33.8544E-03
            4609               1     99.4128E-03     101.956E-03    -34.7363E-03    -34.6772E-03
            4610               1     104.373E-03     106.893E-03    -35.4396E-03    -35.3899E-03
            4611               1     108.977E-03     111.566E-03    -36.5193E-03    -36.4535E-03
            4612               1     114.398E-03     117.025E-03    -37.3511E-03    -37.3820E-03
            4613               1     119.211E-03     121.833E-03    -38.7515E-03    -38.6578E-03
            4614               1     125.699E-03     128.386E-03    -39.6377E-03    -39.7732E-03
            4615               1     130.638E-03     133.334E-03    -41.0369E-03    -40.9362E-03
            4616               1     140.132E-03     142.780E-03    -41.6360E-03    -41.9272E-03
            4617               1     144.830E-03     147.725E-03    -41.1570E-03    -41.2083E-03
            4618               1     163.708E-03     165.783E-03    -40.3985E-03    -40.7744E-03
            4619               1     166.676E-03     169.436E-03    -23.6205E-03    -24.9261E-03
            4620               1     167.698E-03     171.518E-03    -8.89522E-03    -9.17878E-03
            4621               1     82.6476E-03     83.5586E-03    -37.4769E-03    -36.9920E-03
            4622               1     81.3673E-03     82.8665E-03    -35.2101E-03    -34.9560E-03
            4623               1     82.4784E-03     84.4044E-03    -34.4761E-03    -34.2775E-03
            4624               1     85.5802E-03     87.1358E-03    -34.2586E-03    -33.9460E-03
            4625               1     88.5744E-03     90.6227E-03    -34.2478E-03    -34.1580E-03
            4626               1     92.9814E-03     94.7327E-03    -34.5983E-03    -34.4147E-03
            4627               1     96.8754E-03     98.9034E-03    -35.0062E-03    -34.9550E-03
            4628               1     101.768E-03     103.667E-03    -35.5447E-03    -35.4686E-03
            4629               1     106.078E-03     108.094E-03    -36.2316E-03    -36.1828E-03
            4630               1     111.422E-03     113.408E-03    -36.9163E-03    -36.9139E-03
            4631               1     115.892E-03     117.922E-03    -37.7938E-03    -37.7262E-03
            4632               1     122.021E-03     124.053E-03    -38.6207E-03    -38.6908E-03
            4633               1     126.310E-03     128.421E-03    -39.3320E-03    -39.2615E-03
            4634               1     133.996E-03     136.066E-03    -40.0605E-03    -40.2444E-03
            4635               1     137.217E-03     139.594E-03    -39.0077E-03    -39.1001E-03
            4636               1     147.739E-03     149.763E-03    -38.4089E-03    -38.7226E-03
            4637               1     148.477E-03     151.265E-03    -29.0274E-03    -29.9218E-03
            4638               1     151.778E-03     154.510E-03    -20.7848E-03    -21.0938E-03
            4639               1     152.116E-03     153.947E-03    -3.67002E-03    -4.94943E-03
            4640               1     84.8364E-03     85.9062E-03    -40.1796E-03    -39.8374E-03
            4641               1     84.0781E-03     85.1954E-03    -37.8316E-03    -37.4475E-03
            4642               1     85.2077E-03     86.4981E-03    -36.3735E-03    -36.1595E-03
            4643               1     87.3239E-03     88.9859E-03    -35.7369E-03    -35.6553E-03
            4644               1     91.1049E-03     92.4392E-03    -35.6183E-03    -35.4988E-03
            4645               1     94.4977E-03     96.0969E-03    -35.6665E-03    -35.6503E-03
            4646               1     99.0750E-03     100.443E-03    -35.9292E-03    -35.8744E-03
            4647               1     103.000E-03     104.502E-03    -36.2330E-03    -36.2164E-03
            4648               1     108.040E-03     109.440E-03    -36.6448E-03    -36.6358E-03
            4649               1     112.175E-03     113.638E-03    -37.0396E-03    -37.0044E-03
            4650               1     117.810E-03     119.223E-03    -37.5794E-03    -37.6089E-03
            4651               1     121.819E-03     123.322E-03    -37.7859E-03    -37.7358E-03
            4652               1     128.300E-03     129.728E-03    -38.3365E-03    -38.4151E-03
            4653               1     131.372E-03     133.081E-03    -37.3310E-03    -37.3435E-03
            4654               1     138.406E-03     140.000E-03    -37.0832E-03    -37.2638E-03
            4655               1     138.786E-03     140.980E-03    -31.5547E-03    -32.0068E-03
            4656               1     141.171E-03     143.438E-03    -26.9634E-03    -27.2447E-03
            4657               1     138.814E-03     141.086E-03    -14.5141E-03    -15.6300E-03
            4658               1     134.212E-03     137.347E-03    -2.54619E-03    -2.75770E-03
            4659               1     87.0949E-03     87.3346E-03    -42.7158E-03    -42.1354E-03
            4660               1     86.1649E-03     87.2054E-03    -39.9628E-03    -39.7762E-03
            4661               1     87.0812E-03     88.2966E-03    -38.2372E-03    -38.1633E-03
            4662               1     89.8976E-03     90.9672E-03    -37.4098E-03    -37.4455E-03
            4663               1     92.6973E-03     93.8974E-03    -37.0071E-03    -37.0499E-03
            4664               1     96.7047E-03     97.6432E-03    -36.8677E-03    -36.9053E-03
            4665               1     100.150E-03     101.179E-03    -36.8041E-03    -36.8369E-03
            4666               1     104.673E-03     105.546E-03    -36.8668E-03    -36.8921E-03
            4667               1     108.371E-03     109.296E-03    -36.8253E-03    -36.8295E-03
            4668               1     113.369E-03     114.211E-03    -36.9651E-03    -36.9904E-03
            4669               1     117.054E-03     117.960E-03    -36.7133E-03    -36.6946E-03
            4670               1     122.574E-03     123.380E-03    -36.8539E-03    -36.8786E-03
            4671               1     125.700E-03     126.702E-03    -35.7983E-03    -35.7807E-03
            4672               1     131.234E-03     132.082E-03    -35.5402E-03    -35.5563E-03
            4673               1     132.470E-03     133.817E-03    -32.0576E-03    -32.1474E-03
            4674               1     134.681E-03     136.224E-03    -29.7113E-03    -29.8068E-03
            4675               1     131.755E-03     133.599E-03    -21.5142E-03    -22.1017E-03
            4676               1     126.129E-03     128.898E-03    -13.6200E-03    -13.7216E-03
            4677               1     121.674E-03     123.500E-03    -13.2893E-06    -1.21745E-03
            4678               1     88.4014E-03     88.9599E-03    -44.7793E-03    -44.4331E-03
            4679               1     87.4484E-03     88.3771E-03    -41.5815E-03    -41.6402E-03
            4680               1     89.5640E-03     90.4384E-03    -40.1514E-03    -40.3703E-03
            4681               1     91.7334E-03     92.5361E-03    -39.1962E-03    -39.3367E-03
            4682               1     95.0260E-03     95.6124E-03    -38.5772E-03    -38.7684E-03
            4683               1     97.9502E-03     98.5110E-03    -38.1548E-03    -38.2540E-03
            4684               1     101.785E-03     102.180E-03    -37.8263E-03    -37.9272E-03
            4685               1     104.955E-03     105.356E-03    -37.4067E-03    -37.4544E-03
            4686               1     109.188E-03     109.496E-03    -37.1287E-03    -37.1807E-03
            4687               1     112.387E-03     112.719E-03    -36.4637E-03    -36.4781E-03
            4688               1     116.965E-03     117.210E-03    -36.1112E-03    -36.1357E-03
            4689               1     119.864E-03     120.201E-03    -34.8327E-03    -34.8298E-03
            4690               1     124.378E-03     124.552E-03    -34.1788E-03    -34.1475E-03
            4691               1     126.215E-03     126.668E-03    -31.4838E-03    -31.4644E-03
            4692               1     128.745E-03     129.066E-03    -29.8176E-03    -29.6669E-03
            4693               1     127.785E-03     128.632E-03    -24.5567E-03    -24.4674E-03
            4694               1     123.586E-03     125.517E-03    -20.2641E-03    -20.2167E-03
            4695               1     116.519E-03     117.841E-03    -10.5603E-03    -11.1528E-03
            4696               1     105.956E-03     109.265E-03     392.807E-06     720.249E-06
            4697               1     88.0114E-03     88.9062E-03    -45.2876E-03    -45.6411E-03
            4698               1     90.0105E-03     90.7394E-03    -43.5867E-03    -44.0539E-03
            4699               1     91.6523E-03     92.0496E-03    -42.1979E-03    -42.4776E-03
            4700               1     94.2715E-03     94.5352E-03    -41.1294E-03    -41.5088E-03
            4701               1     96.7134E-03     96.7659E-03    -40.3809E-03    -40.5484E-03
            4702               1     99.7609E-03     99.7038E-03    -39.6448E-03    -39.8456E-03
            4703               1     102.385E-03     102.251E-03    -38.9111E-03    -38.9979E-03
            4704               1     105.783E-03     105.576E-03    -38.2522E-03    -38.3459E-03
            4705               1     108.399E-03     108.170E-03    -37.2556E-03    -37.2956E-03
            4706               1     112.022E-03     111.737E-03    -36.4713E-03    -36.5152E-03
            4707               1     114.396E-03     114.130E-03    -34.9225E-03    -34.9427E-03
            4708               1     117.910E-03     117.534E-03    -33.7865E-03    -33.7800E-03
            4709               1     119.607E-03     119.328E-03    -31.2158E-03    -31.2171E-03
            4710               1     121.917E-03     121.412E-03    -29.3256E-03    -29.1775E-03
            4711               1     122.058E-03     121.785E-03    -25.1403E-03    -25.0178E-03
            4712               1     120.443E-03     120.074E-03    -21.8608E-03    -21.3728E-03
            4713               1     116.902E-03     117.001E-03    -15.6853E-03    -15.0076E-03
            4714               1     105.326E-03     108.432E-03    -9.90571E-03    -9.57035E-03
            4715               1     93.9964E-03     94.2829E-03     2.49631E-03     1.41018E-03
            4716               1     91.2331E-03     91.7119E-03    -47.3551E-03    -48.0991E-03
            4717               1     92.6315E-03     92.5361E-03    -45.9033E-03    -46.3323E-03
            4718               1     94.5882E-03     94.3994E-03    -44.4554E-03    -44.9678E-03
            4719               1     96.6029E-03     96.0605E-03    -43.4457E-03    -43.6559E-03
            4720               1     98.8343E-03     98.2791E-03    -42.3159E-03    -42.5813E-03
            4721               1     100.952E-03     100.249E-03    -41.3170E-03    -41.4205E-03
            4722               1     103.523E-03     102.799E-03    -40.3330E-03    -40.4537E-03
            4723               1     105.590E-03     104.805E-03    -39.1060E-03    -39.1547E-03
            4724               1     108.320E-03     107.514E-03    -38.0237E-03    -38.0787E-03
            4725               1     110.094E-03     109.259E-03    -36.2891E-03    -36.3153E-03
            4726               1     112.634E-03     111.759E-03    -34.8231E-03    -34.8447E-03
            4727               1     113.742E-03     112.864E-03    -32.2064E-03    -32.2265E-03
            4728               1     115.355E-03     114.350E-03    -29.9686E-03    -29.9224E-03
            4729               1     115.242E-03     114.246E-03    -26.0367E-03    -26.0134E-03
            4730               1     114.405E-03     113.111E-03    -22.5075E-03    -22.2321E-03
            4731               1     112.172E-03     110.812E-03    -17.0368E-03    -16.7150E-03
            4732               1     106.054E-03     104.394E-03    -11.7550E-03    -10.7829E-03
            4733               1     99.7093E-03     98.1357E-03    -5.10485E-03    -3.12689E-03
            4734               1     77.0336E-03     83.6154E-03     3.13589E-03     4.37028E-03
            4735               1     95.6187E-03     94.3562E-03    -50.5661E-03    -50.7846E-03
            4736               1     96.1900E-03     95.1001E-03    -48.4982E-03    -48.8853E-03
            4737               1     97.7158E-03     96.3294E-03    -47.2419E-03    -47.3410E-03
            4738               1     99.0265E-03     97.7803E-03    -45.6894E-03    -45.8719E-03
            4739               1     100.653E-03     99.3079E-03    -44.4310E-03    -44.4808E-03
            4740               1     102.471E-03     101.185E-03    -43.1669E-03    -43.2475E-03
            4741               1     104.116E-03     102.777E-03    -41.7968E-03    -41.8211E-03
            4742               1     106.129E-03     104.804E-03    -40.5540E-03    -40.5882E-03
            4743               1     107.468E-03     106.096E-03    -38.7851E-03    -38.7977E-03
            4744               1     109.243E-03     107.869E-03    -37.2363E-03    -37.2517E-03
            4745               1     109.809E-03     108.389E-03    -34.6852E-03    -34.6963E-03
            4746               1     110.686E-03     109.243E-03    -32.3991E-03    -32.3988E-03
            4747               1     109.859E-03     108.362E-03    -28.6226E-03    -28.6318E-03
            4748               1     108.783E-03     107.171E-03    -25.0046E-03    -24.9543E-03
            4749               1     105.798E-03     104.024E-03    -19.6355E-03    -19.5967E-03
            4750               1     101.267E-03     99.0332E-03    -13.9187E-03    -13.6837E-03
            4751               1     95.2291E-03     92.2385E-03    -6.89142E-03    -6.55218E-03
            4752               1     85.4043E-03     80.8032E-03     2.08937E-03     3.12860E-03
            4753               1     75.8194E-03     67.5294E-03     9.54063E-03     13.1631E-03
            4754               1     68.2516E-03     69.6520E-03    -35.5699E-03    -35.4872E-03
            4755               1     66.5001E-03     68.3878E-03    -34.9134E-03    -35.1173E-03
            4756               1     66.5192E-03     67.7560E-03    -34.8347E-03    -34.7229E-03
            4757               1     66.3726E-03     67.9980E-03    -34.5721E-03    -34.6041E-03
            4758               1     66.7480E-03     68.2407E-03    -34.4145E-03    -34.3434E-03
            4759               1     67.5387E-03     69.2835E-03    -34.4709E-03    -34.4654E-03
            4760               1     68.3555E-03     70.1267E-03    -34.4118E-03    -34.3758E-03
            4761               1     69.7325E-03     71.6614E-03    -34.6932E-03    -34.6827E-03
            4762               1     70.8265E-03     72.8282E-03    -34.6719E-03    -34.6602E-03
            4763               1     72.5840E-03     74.6831E-03    -35.0830E-03    -35.0680E-03
            4764               1     73.7907E-03     75.9935E-03    -34.9264E-03    -34.9362E-03
            4765               1     75.9706E-03     78.2347E-03    -35.4045E-03    -35.3738E-03
            4766               1     77.3508E-03     79.7765E-03    -34.8371E-03    -34.8796E-03
            4767               1     80.6122E-03     83.0717E-03    -35.4814E-03    -35.3973E-03
            4768               1     83.0543E-03     85.8026E-03    -34.0982E-03    -34.2035E-03
            4769               1     89.8166E-03     92.5773E-03    -35.6775E-03    -35.4098E-03
            4770               1     97.5052E-03     100.876E-03    -32.7638E-03    -32.9589E-03
            4771               1     116.137E-03     119.665E-03    -39.1608E-03    -38.2380E-03
            4772               1     167.420E-03     173.460E-03    -29.8764E-03    -29.2362E-03
            4773               1     67.9694E-03     70.1496E-03    -35.5866E-03    -36.0716E-03
            4774               1     67.4102E-03     68.4441E-03    -35.3368E-03    -35.2493E-03
            4775               1     66.7279E-03     68.2485E-03    -35.0464E-03    -35.1570E-03
            4776               1     67.1135E-03     68.1121E-03    -34.9551E-03    -34.7792E-03
            4777               1     67.6121E-03     69.0166E-03    -34.9350E-03    -34.9257E-03
            4778               1     68.4874E-03     69.7478E-03    -34.9367E-03    -34.8178E-03
            4779               1     69.7080E-03     71.2185E-03    -35.1684E-03    -35.1421E-03
            4780               1     70.9289E-03     72.4446E-03    -35.2539E-03    -35.1969E-03
            4781               1     72.5788E-03     74.2208E-03    -35.6690E-03    -35.6402E-03
            4782               1     74.0114E-03     75.7333E-03    -35.7471E-03    -35.7395E-03
            4783               1     75.9624E-03     77.7178E-03    -36.2807E-03    -36.2377E-03
            4784               1     77.6303E-03     79.5397E-03    -36.1867E-03    -36.2303E-03
            4785               1     80.0296E-03     81.8929E-03    -36.7982E-03    -36.7124E-03
            4786               1     82.5268E-03     84.6360E-03    -36.2783E-03    -36.3897E-03
            4787               1     86.1461E-03     88.1255E-03    -37.0016E-03    -36.7910E-03
            4788               1     92.3621E-03     94.5953E-03    -35.7517E-03    -35.9022E-03
            4789               1     98.9253E-03     101.008E-03    -36.1908E-03    -35.6828E-03
            4790               1     124.920E-03     126.274E-03    -34.0593E-03    -33.7333E-03
            4791               1     131.319E-03     130.261E-03    -7.72398E-03    -8.48530E-03
            4792               1     70.4092E-03     71.6384E-03    -36.7883E-03    -37.0741E-03
            4793               1     68.5804E-03     69.7665E-03    -36.2428E-03    -36.3194E-03
            4794               1     67.7672E-03     68.4840E-03    -35.5311E-03    -35.3726E-03
            4795               1     67.7907E-03     68.9201E-03    -35.3891E-03    -35.3752E-03
            4796               1     68.4387E-03     69.2889E-03    -35.2852E-03    -35.1140E-03
            4797               1     69.4530E-03     70.6263E-03    -35.4485E-03    -35.4141E-03
            4798               1     70.7214E-03     71.8052E-03    -35.5761E-03    -35.4728E-03
            4799               1     72.2752E-03     73.5379E-03    -35.9547E-03    -35.9216E-03
            4800               1     73.8884E-03     75.1709E-03    -36.1826E-03    -36.1440E-03
            4801               1     75.7219E-03     77.0646E-03    -36.6977E-03    -36.6566E-03
            4802               1     77.6242E-03     79.0709E-03    -36.9116E-03    -36.9317E-03
            4803               1     79.5863E-03     81.0066E-03    -37.4384E-03    -37.3753E-03
            4804               1     82.0444E-03     83.6414E-03    -37.4462E-03    -37.5353E-03
            4805               1     84.0282E-03     85.5592E-03    -37.6403E-03    -37.5386E-03
            4806               1     88.3576E-03     90.0268E-03    -37.0687E-03    -37.2298E-03
            4807               1     90.0875E-03     91.8031E-03    -35.5320E-03    -35.4149E-03
            4808               1     101.675E-03     102.862E-03    -33.5535E-03    -33.6347E-03
            4809               1     102.382E-03     103.610E-03    -19.5217E-03    -20.3146E-03
            4810               1     104.678E-03     107.529E-03    -5.73276E-03    -6.22579E-03
            4811               1     74.7715E-03     74.5597E-03    -39.9934E-03    -39.5508E-03
            4812               1     70.1436E-03     70.7134E-03    -37.1519E-03    -37.1079E-03
            4813               1     69.1972E-03     69.8410E-03    -36.5458E-03    -36.4044E-03
            4814               1     68.7480E-03     69.3185E-03    -35.8216E-03    -35.6649E-03
            4815               1     69.3805E-03     70.2332E-03    -35.8162E-03    -35.7569E-03
            4816               1     70.3877E-03     71.1239E-03    -35.7956E-03    -35.6743E-03
            4817               1     71.7777E-03     72.7193E-03    -36.0839E-03    -36.0529E-03
            4818               1     73.4088E-03     74.3070E-03    -36.3351E-03    -36.2728E-03
            4819               1     75.1359E-03     76.1287E-03    -36.7767E-03    -36.7456E-03
            4820               1     77.1407E-03     78.1727E-03    -37.1294E-03    -37.1223E-03
            4821               1     78.9198E-03     79.9621E-03    -37.5769E-03    -37.5335E-03
            4822               1     81.3241E-03     82.4708E-03    -37.8776E-03    -37.9275E-03
            4823               1     82.6967E-03     83.8475E-03    -37.9133E-03    -37.8733E-03
            4824               1     85.8267E-03     87.0557E-03    -37.7767E-03    -37.8982E-03
            4825               1     85.7645E-03     87.1844E-03    -36.0381E-03    -36.0943E-03
            4826               1     90.6958E-03     91.8390E-03    -34.3446E-03    -34.5358E-03
            4827               1     87.8994E-03     89.6081E-03    -25.8820E-03    -26.4829E-03
            4828               1     89.1727E-03     90.9299E-03    -17.5680E-03    -17.9848E-03
            4829               1     90.3206E-03     90.7406E-03    -2.44666E-03    -3.13882E-03
            4830               1     75.7334E-03     75.7582E-03    -41.1591E-03    -40.9090E-03
            4831               1     72.8325E-03     72.6567E-03    -39.1620E-03    -38.7244E-03
            4832               1     70.1931E-03     70.5286E-03    -37.1539E-03    -37.0184E-03
            4833               1     70.0919E-03     70.5492E-03    -36.6993E-03    -36.5616E-03
            4834               1     70.3130E-03     70.7896E-03    -36.2089E-03    -36.1053E-03
            4835               1     71.4001E-03     72.0511E-03    -36.3069E-03    -36.2782E-03
            4836               1     72.7922E-03     73.3713E-03    -36.4177E-03    -36.3537E-03
            4837               1     74.3412E-03     75.0305E-03    -36.7230E-03    -36.7104E-03
            4838               1     76.2659E-03     76.9334E-03    -37.0562E-03    -37.0346E-03
            4839               1     77.9188E-03     78.6196E-03    -37.3937E-03    -37.3685E-03
            4840               1     80.2045E-03     80.9499E-03    -37.7801E-03    -37.8001E-03
            4841               1     81.4812E-03     82.2399E-03    -37.8104E-03    -37.7841E-03
            4842               1     84.0241E-03     84.8402E-03    -37.9574E-03    -38.0252E-03
            4843               1     83.7675E-03     84.7623E-03    -36.6410E-03    -36.7065E-03
            4844               1     86.0893E-03     86.9819E-03    -35.5790E-03    -35.7339E-03
            4845               1     82.3442E-03     83.8319E-03    -30.1199E-03    -30.5400E-03
            4846               1     81.3387E-03     82.6197E-03    -24.8196E-03    -25.2058E-03
            4847               1     76.7626E-03     78.0356E-03    -13.4119E-03    -14.1255E-03
            4848               1     74.0347E-03     75.8459E-03    -1.50035E-03    -2.17124E-03
            4849               1     77.9719E-03     77.1888E-03    -43.0665E-03    -42.4029E-03
            4850               1     73.2823E-03     73.3335E-03    -39.7807E-03    -39.5838E-03
            4851               1     72.0055E-03     71.9573E-03    -38.4720E-03    -38.1814E-03
            4852               1     70.9050E-03     71.2152E-03    -37.1663E-03    -37.1097E-03
            4853               1     71.5361E-03     71.8925E-03    -36.9250E-03    -36.8864E-03
            4854               1     72.3849E-03     72.7204E-03    -36.7084E-03    -36.6738E-03
            4855               1     73.6486E-03     74.0667E-03    -36.8025E-03    -36.8162E-03
            4856               1     75.2882E-03     75.6424E-03    -36.9789E-03    -36.9628E-03
            4857               1     76.7337E-03     77.1286E-03    -37.1436E-03    -37.1446E-03
            4858               1     78.7708E-03     79.1548E-03    -37.4444E-03    -37.4517E-03
            4859               1     80.0146E-03     80.4035E-03    -37.4265E-03    -37.4095E-03
            4860               1     82.2065E-03     82.6236E-03    -37.6411E-03    -37.6707E-03
            4861               1     82.3688E-03     82.8669E-03    -36.7825E-03    -36.7988E-03
            4862               1     83.9479E-03     84.4318E-03    -36.3089E-03    -36.3664E-03
            4863               1     81.0010E-03     81.9393E-03    -32.8726E-03    -33.1131E-03
            4864               1     79.2706E-03     80.0614E-03    -29.7603E-03    -29.9629E-03
            4865               1     71.9917E-03     73.4455E-03    -21.5683E-03    -22.1568E-03
            4866               1     65.5399E-03     66.9174E-03    -12.9520E-03    -13.5025E-03
            4867               1     61.5720E-03     62.4621E-03    -435.023E-06    -968.603E-06
            4868               1     77.6684E-03     77.3280E-03    -43.3986E-03    -43.0615E-03
            4869               1     74.8240E-03     74.4326E-03    -41.0660E-03    -40.6770E-03
            4870               1     72.3244E-03     72.5351E-03    -38.8599E-03    -38.8480E-03
            4871               1     72.3876E-03     72.4951E-03    -38.1297E-03    -38.0981E-03
            4872               1     72.5093E-03     72.6732E-03    -37.4653E-03    -37.4829E-03
            4873               1     73.3918E-03     73.5725E-03    -37.2649E-03    -37.3177E-03
            4874               1     74.5773E-03     74.6683E-03    -37.1862E-03    -37.1956E-03
            4875               1     75.6943E-03     75.8159E-03    -37.1135E-03    -37.1509E-03
            4876               1     77.3358E-03     77.3968E-03    -37.2132E-03    -37.2253E-03
            4877               1     78.3903E-03     78.4489E-03    -37.0421E-03    -37.0466E-03
            4878               1     80.1937E-03     80.2446E-03    -37.1228E-03    -37.1417E-03
            4879               1     80.6476E-03     80.6940E-03    -36.4725E-03    -36.4598E-03
            4880               1     81.9924E-03     82.0507E-03    -36.2066E-03    -36.2195E-03
            4881               1     80.4881E-03     80.6914E-03    -34.1426E-03    -34.1860E-03
            4882               1     79.3460E-03     79.5543E-03    -32.5524E-03    -32.5535E-03
            4883               1     73.0909E-03     73.9619E-03    -27.2280E-03    -27.5415E-03
            4884               1     65.9365E-03     66.6913E-03    -21.8249E-03    -22.0690E-03
            4885               1     55.0853E-03     56.5234E-03    -11.6426E-03    -12.1236E-03
            4886               1     47.8839E-03     48.9497E-03     22.1830E-06    -761.122E-06
            4887               1     78.4633E-03     77.8235E-03    -44.2886E-03    -43.8048E-03
            4888               1     74.2060E-03     74.5108E-03    -41.0238E-03    -41.1466E-03
            4889               1     73.8239E-03     73.8391E-03    -39.8726E-03    -39.9189E-03
            4890               1     73.3101E-03     73.3890E-03    -38.8037E-03    -38.9014E-03
            4891               1     73.7833E-03     73.7815E-03    -38.2620E-03    -38.3774E-03
            4892               1     74.4574E-03     74.3355E-03    -37.8974E-03    -37.9487E-03
            4893               1     75.1569E-03     75.0361E-03    -37.5419E-03    -37.6239E-03
            4894               1     76.3056E-03     76.0788E-03    -37.3898E-03    -37.4182E-03
            4895               1     76.9958E-03     76.7623E-03    -36.9861E-03    -37.0222E-03
            4896               1     78.3042E-03     78.0217E-03    -36.8257E-03    -36.8484E-03
            4897               1     78.6719E-03     78.3530E-03    -36.1266E-03    -36.1237E-03
            4898               1     79.7021E-03     79.3744E-03    -35.7484E-03    -35.7589E-03
            4899               1     79.0166E-03     78.6548E-03    -34.2911E-03    -34.2584E-03
            4900               1     78.5131E-03     78.1710E-03    -33.2479E-03    -33.2004E-03
            4901               1     75.0233E-03     74.7872E-03    -30.1301E-03    -30.0963E-03
            4902               1     69.9272E-03     69.7842E-03    -27.3975E-03    -27.2054E-03
            4903               1     59.0928E-03     60.0650E-03    -20.3909E-03    -20.6775E-03
            4904               1     46.3055E-03     46.8266E-03    -12.4771E-03    -12.7700E-03
            4905               1     33.8871E-03     35.5259E-03     201.573E-06     113.715E-06
            4906               1     76.1519E-03     76.8248E-03    -43.2203E-03    -43.6317E-03
            4907               1     75.5619E-03     75.7952E-03    -41.8927E-03    -42.1760E-03
            4908               1     74.7789E-03     74.8291E-03    -40.6649E-03    -40.8621E-03
            4909               1     74.8457E-03     74.7767E-03    -39.7942E-03    -40.0254E-03
            4910               1     75.1327E-03     74.8272E-03    -39.2175E-03    -39.3109E-03
            4911               1     75.3666E-03     75.0434E-03    -38.5560E-03    -38.6908E-03
            4912               1     76.0222E-03     75.5378E-03    -38.1617E-03    -38.2077E-03
            4913               1     76.2558E-03     75.7608E-03    -37.4979E-03    -37.5651E-03
            4914               1     77.0225E-03     76.4387E-03    -37.0844E-03    -37.1133E-03
            4915               1     77.0305E-03     76.4066E-03    -36.2067E-03    -36.2275E-03
            4916               1     77.5821E-03     76.9206E-03    -35.5921E-03    -35.6130E-03
            4917               1     76.9466E-03     76.2018E-03    -34.2262E-03    -34.2021E-03
            4918               1     76.5276E-03     75.7740E-03    -33.1434E-03    -33.1302E-03
            4919               1     74.3968E-03     73.4958E-03    -30.9052E-03    -30.7916E-03
            4920               1     71.1897E-03     70.3352E-03    -28.9242E-03    -28.7690E-03
            4921               1     65.4538E-03     64.4549E-03    -25.1719E-03    -24.8588E-03
            4922               1     55.3995E-03     54.5678E-03    -21.5860E-03    -20.9584E-03
            4923               1     36.9722E-03     38.5634E-03    -12.1617E-03    -12.2914E-03
            4924               1     20.5117E-03     19.9331E-03    -221.083E-09    -770.299E-06
            4925               1     77.4791E-03     78.1706E-03    -43.9305E-03    -44.5589E-03
            4926               1     77.0221E-03     77.0660E-03    -42.9786E-03    -43.2818E-03
            4927               1     76.5962E-03     76.5197E-03    -41.8106E-03    -42.1661E-03
            4928               1     76.6856E-03     76.2000E-03    -41.1367E-03    -41.2558E-03
            4929               1     76.4186E-03     75.9126E-03    -40.1695E-03    -40.3415E-03
            4930               1     76.6537E-03     75.9371E-03    -39.5698E-03    -39.6231E-03
            4931               1     76.4317E-03     75.6954E-03    -38.6602E-03    -38.7421E-03
            4932               1     76.7089E-03     75.8583E-03    -38.0371E-03    -38.0654E-03
            4933               1     76.2973E-03     75.4052E-03    -36.9749E-03    -37.0100E-03
            4934               1     76.3525E-03     75.3992E-03    -36.1598E-03    -36.1810E-03
            4935               1     75.3906E-03     74.3603E-03    -34.7017E-03    -34.7047E-03
            4936               1     74.6834E-03     73.6170E-03    -33.4522E-03    -33.4636E-03
            4937               1     72.6181E-03     71.4047E-03    -31.3395E-03    -31.2878E-03
            4938               1     70.0570E-03     68.8065E-03    -29.3328E-03    -29.2889E-03
            4939               1     65.9640E-03     64.3752E-03    -26.3876E-03    -26.1561E-03
            4940               1     59.3022E-03     57.6578E-03    -23.2997E-03    -23.0107E-03
            4941               1     50.9546E-03     48.5913E-03    -19.3700E-03    -18.5728E-03
            4942               1     34.2420E-03     31.3575E-03    -15.1240E-03    -13.5462E-03
            4943               1     1.04436E-03     5.62386E-03    -92.2366E-06     452.530E-06
            4944               1     80.8515E-03     80.5257E-03    -46.0462E-03    -46.1802E-03
            4945               1     79.2516E-03     78.9800E-03    -44.3488E-03    -44.6628E-03
            4946               1     79.1703E-03     78.4066E-03    -43.6067E-03    -43.6548E-03
            4947               1     78.2648E-03     77.5068E-03    -42.2979E-03    -42.4222E-03
            4948               1     78.1129E-03     77.1703E-03    -41.4933E-03    -41.5175E-03
            4949               1     77.4829E-03     76.4971E-03    -40.3675E-03    -40.4193E-03
            4950               1     77.3761E-03     76.2993E-03    -39.5804E-03    -39.5935E-03
            4951               1     76.6648E-03     75.5254E-03    -38.4020E-03    -38.4244E-03
            4952               1     76.3698E-03     75.1724E-03    -37.4893E-03    -37.4983E-03
            4953               1     75.1412E-03     73.8653E-03    -35.9872E-03    -35.9952E-03
            4954               1     74.1655E-03     72.8488E-03    -34.6919E-03    -34.7000E-03
            4955               1     71.8407E-03     70.4143E-03    -32.5759E-03    -32.5693E-03
            4956               1     69.3364E-03     67.8726E-03    -30.5443E-03    -30.5467E-03
            4957               1     65.1247E-03     63.4518E-03    -27.5767E-03    -27.5241E-03
            4958               1     59.6469E-03     57.8908E-03    -24.3811E-03    -24.3499E-03
            4959               1     52.3800E-03     50.0586E-03    -20.5749E-03    -20.3389E-03
            4960               1     41.0151E-03     38.2978E-03    -15.7407E-03    -15.5267E-03
            4961               1     28.6928E-03     24.3913E-03    -11.9973E-03    -10.9708E-03
            4962               1     13.6809E-03     20.7888E-03    -4.37556E-03    -1.67530E-03
            4963               1     61.6554E-03     61.6473E-03    -35.5708E-03    -35.2916E-03
            4964               1     59.1954E-03     59.9142E-03    -34.1639E-03    -34.2921E-03
            4965               1     59.9878E-03     60.4742E-03    -34.6027E-03    -34.5575E-03
            4966               1     59.5146E-03     60.1546E-03    -34.3210E-03    -34.3382E-03
            4967               1     59.8535E-03     60.5035E-03    -34.4979E-03    -34.4889E-03
            4968               1     59.7382E-03     60.4585E-03    -34.4168E-03    -34.4226E-03
            4969               1     59.8663E-03     60.6205E-03    -34.4697E-03    -34.4662E-03
            4970               1     59.8918E-03     60.6993E-03    -34.4652E-03    -34.4665E-03
            4971               1     59.9207E-03     60.7766E-03    -34.4564E-03    -34.4568E-03
            4972               1     60.0793E-03     60.9719E-03    -34.5261E-03    -34.5239E-03
            4973               1     59.9960E-03     60.9543E-03    -34.4455E-03    -34.4499E-03
            4974               1     60.4216E-03     61.3892E-03    -34.6724E-03    -34.6652E-03
            4975               1     60.0828E-03     61.1468E-03    -34.4310E-03    -34.4411E-03
            4976               1     61.1981E-03     62.2088E-03    -35.0785E-03    -35.0636E-03
            4977               1     60.0283E-03     61.2195E-03    -34.3331E-03    -34.3710E-03
            4978               1     62.4340E-03     63.2475E-03    -35.8013E-03    -35.6687E-03
            4979               1     56.4597E-03     58.3413E-03    -32.0142E-03    -32.3412E-03
            4980               1     58.3504E-03     59.6831E-03    -32.5293E-03    -32.1196E-03
            4981               1     65.4403E-03     71.2806E-03    -19.2348E-03    -18.3575E-03
            4982               1     58.9523E-03     59.4017E-03    -34.0001E-03    -34.1744E-03
            4983               1     60.0709E-03     60.0800E-03    -34.5877E-03    -34.4958E-03
            4984               1     59.9106E-03     60.1507E-03    -34.5061E-03    -34.5311E-03
            4985               1     60.2868E-03     60.4906E-03    -34.6806E-03    -34.6741E-03
            4986               1     60.2217E-03     60.4587E-03    -34.6316E-03    -34.6364E-03
            4987               1     60.3536E-03     60.5946E-03    -34.6735E-03    -34.6694E-03
            4988               1     60.3614E-03     60.6285E-03    -34.6563E-03    -34.6588E-03
            4989               1     60.4372E-03     60.7166E-03    -34.6644E-03    -34.6636E-03
            4990               1     60.5025E-03     60.7957E-03    -34.6760E-03    -34.6748E-03
            4991               1     60.5470E-03     60.8669E-03    -34.6585E-03    -34.6616E-03
            4992               1     60.6788E-03     60.9959E-03    -34.7121E-03    -34.7067E-03
            4993               1     60.6799E-03     61.0425E-03    -34.6495E-03    -34.6566E-03
            4994               1     60.9535E-03     61.2938E-03    -34.8087E-03    -34.8014E-03
            4995               1     60.9225E-03     61.3225E-03    -34.6752E-03    -34.6813E-03
            4996               1     61.7805E-03     62.1249E-03    -35.2675E-03    -35.2509E-03
            4997               1     62.1065E-03     62.6140E-03    -35.2009E-03    -35.2789E-03
            4998               1     64.3822E-03     64.3368E-03    -36.8679E-03    -36.6228E-03
            4999               1     59.1909E-03     60.3077E-03    -32.5376E-03    -32.7446E-03
            5000               1     33.7507E-03     32.8908E-03    -9.09308E-03    -10.4665E-03
            5001               1     59.7097E-03     59.8450E-03    -34.2564E-03    -34.4525E-03
            5002               1     60.5521E-03     60.2911E-03    -34.8084E-03    -34.7311E-03
            5003               1     60.5261E-03     60.3583E-03    -34.7210E-03    -34.7340E-03
            5004               1     60.7844E-03     60.6121E-03    -34.8725E-03    -34.8757E-03
            5005               1     60.7872E-03     60.5770E-03    -34.8245E-03    -34.8206E-03
            5006               1     60.8767E-03     60.6686E-03    -34.8533E-03    -34.8550E-03
            5007               1     60.9238E-03     60.6928E-03    -34.8354E-03    -34.8347E-03
            5008               1     60.9799E-03     60.7384E-03    -34.8359E-03    -34.8355E-03
            5009               1     61.0687E-03     60.8127E-03    -34.8385E-03    -34.8399E-03
            5010               1     61.0817E-03     60.8085E-03    -34.8132E-03    -34.8105E-03
            5011               1     61.2350E-03     60.9531E-03    -34.8399E-03    -34.8439E-03
            5012               1     61.1281E-03     60.8235E-03    -34.7575E-03    -34.7513E-03
            5013               1     61.4565E-03     61.1501E-03    -34.8489E-03    -34.8586E-03
            5014               1     61.0737E-03     60.7363E-03    -34.6539E-03    -34.6395E-03
            5015               1     62.1901E-03     61.8134E-03    -35.0772E-03    -35.0818E-03
            5016               1     61.3818E-03     61.2234E-03    -34.7824E-03    -34.8523E-03
            5017               1     65.0896E-03     64.1044E-03    -36.2571E-03    -36.0237E-03
            5018               1     53.4758E-03     53.7687E-03    -30.3016E-03    -30.5632E-03
            5019               1     16.3575E-03     17.7636E-03    -8.94172E-03    -10.0761E-03
            5020               1     63.2679E-03     62.4518E-03    -36.2993E-03    -36.0460E-03
            5021               1     60.8990E-03     60.5946E-03    -34.8262E-03    -34.9564E-03
            5022               1     61.5691E-03     60.9735E-03    -35.2134E-03    -35.1709E-03
            5023               1     61.1290E-03     60.5629E-03    -34.9044E-03    -34.9176E-03
            5024               1     61.4441E-03     60.8134E-03    -35.0578E-03    -35.0510E-03
            5025               1     61.3687E-03     60.7039E-03    -34.9638E-03    -34.9680E-03
            5026               1     61.5053E-03     60.7891E-03    -35.0024E-03    -34.9998E-03
            5027               1     61.5617E-03     60.8039E-03    -34.9837E-03    -34.9851E-03
            5028               1     61.5918E-03     60.7892E-03    -34.9555E-03    -34.9550E-03
            5029               1     61.7541E-03     60.9042E-03    -34.9935E-03    -34.9932E-03
            5030               1     61.6150E-03     60.7283E-03    -34.8671E-03    -34.8684E-03
            5031               1     61.9782E-03     61.0339E-03    -35.0111E-03    -35.0083E-03
            5032               1     61.4127E-03     60.4455E-03    -34.6457E-03    -34.6494E-03
            5033               1     62.3223E-03     61.2706E-03    -35.0751E-03    -35.0678E-03
            5034               1     60.4560E-03     59.4418E-03    -33.9736E-03    -34.0025E-03
            5035               1     62.4114E-03     61.0075E-03    -34.8983E-03    -34.7834E-03
            5036               1     53.8311E-03     53.2964E-03    -30.0626E-03    -30.3931E-03
            5037               1     50.8121E-03     49.6367E-03    -28.8960E-03    -28.5068E-03
            5038               1     39.0470E-03     43.7714E-03    -15.0978E-03    -14.1011E-03
            5039               1     2.39060E-15     1.99981E-15    -853.967E-18    -671.546E-18
            5040               1     2.56935E-15     1.90753E-15    -420.633E-18    -342.123E-18
            5041               1     2.21619E-15     1.50655E-15    -756.984E-18    -768.529E-18
            5042               1     3.84520E-15     3.00454E-15    -1.56246E-15    -1.48857E-15
            5043               1     3.69014E-15     3.76059E-15    -914.377E-18    -1.37389E-15
            5044               1     3.48237E-15     3.08447E-15    -977.505E-18    -548.008E-18
            5045               1     1.82692E-15     2.41522E-15    -307.486E-18    -455.270E-18
            5046               1     2.90483E-15     3.68468E-15     591.881E-18     933.632E-18
            5047               1     4.34232E-15     4.11588E-15     960.187E-18     565.326E-18
            5048               1     1.25780E-15     917.213E-18    -234.376E-18     234.376E-18
            5049               1     3.75760E-15     3.45413E-15     1.27691E-15     1.01136E-15
            5050               1     4.52308E-15     3.63979E-15    -142.011E-18     142.011E-18
            5051               1     4.44173E-15     3.79200E-15     200.894E-18    -200.894E-18
            5052               1     1.77875E-15     1.36667E-15     369.833E-18     392.924E-18
            5053               1     4.37480E-15     3.88379E-15     2.34946E-15     2.22708E-15
            5054               1     3.77927E-15     2.62989E-15    -9.23651E-18     9.23651E-18
            5055               1     3.34435E-15     2.63277E-15    -28.8641E-18     28.8641E-18
            5056               1     3.39618E-15     3.14474E-15    -748.902E-18    -776.611E-18
            5057               1     3.19368E-15     2.91089E-15    -113.147E-18     113.147E-18
            5058               1     2.30377E-15     1.46895E-15    -1.03408E-15    -491.434E-18
            5059               1     1.15680E-15     2.03544E-15     34.2645E-18    -797.021E-18
            5060               1     1.97144E-15     2.53399E-15     246.294E-18     516.462E-18
            5061               1     362.011E-18     708.121E-18    -197.430E-18     197.430E-18
            5062               1     3.53366E-15     3.26728E-15    -1.57400E-15    -1.47702E-15
            5063               1     3.28910E-15     3.36601E-15    -1.55900E-15    -1.49203E-15
            5064               1     1.91734E-15     2.13488E-15     88.9014E-18    -88.9014E-18
            5065               1     522.925E-18     348.389E-18     122.384E-18    -122.384E-18
            5066               1     3.30545E-15     3.28273E-15     698.101E-18     827.412E-18
            5067               1     261.750E-18     211.952E-18    -101.602E-18     101.602E-18
            5068               1     3.03540E-15     3.64070E-15    -1.23456E-15    -1.81646E-15
            5069               1     1.88424E-15     2.09105E-15     1.08756E-15     1.20071E-15
            5070               1     2.82546E-15     3.18389E-15    -160.484E-18     160.484E-18
            5071               1     2.81608E-15     2.49789E-15    -1.61788E-15    -1.43315E-15
            5072               1     1.08332E-15     973.351E-18     51.9553E-18    -51.9553E-18
            5073               1     2.29052E-15     2.51137E-15    -740.820E-18    -784.693E-18
            5074               1     3.26305E-15     3.38185E-15    -1.55438E-15    -1.49665E-15
            5075               1     1.41784E-15     1.42754E-15    -763.911E-18    -761.602E-18
            5076               1     2.45229E-15     2.92798E-15    -1.39620E-15    -1.65482E-15
            5077               1     1.56403E-15     2.53348E-15    -404.842E-18    -1.12067E-15
            5078               1     3.08401E-15     3.08807E-15    -382.160E-18     382.160E-18
            5079               1     1.69130E-15     1.79630E-15    -604.581E-18    -920.932E-18
            5080               1     1.74240E-15     976.665E-18     554.563E-18     208.194E-18
            5081               1     3.47615E-15     3.42884E-15     1.55322E-15     1.49780E-15
            5082               1     3.49380E-15     3.12436E-15     1.63289E-15     1.41814E-15
            5083               1     2.29759E-15     1.95286E-15    -482.980E-18    -279.777E-18
            5084               1     971.366E-18     1.49311E-15     338.659E-18     424.097E-18
            5085               1     1.57403E-15     1.77450E-15    -684.246E-18    -841.267E-18
            5086               1     2.60732E-15     3.02075E-15     1.08179E-15     1.20648E-15
            5087               1     1.12158E-15     1.46275E-15     280.931E-18     481.825E-18
            5088               1     1.41373E-15     1.25343E-15    -807.785E-18    -717.729E-18
            5089               1     2.04274E-15     1.95753E-15    -5.77282E-18     5.77282E-18
            5090               1     1.78112E-15     1.62563E-15     792.775E-18     732.738E-18
            5091               1     2.46709E-15     2.36404E-15     832.030E-18     693.483E-18
            5092               1     2.53954E-15     2.96036E-15     1.42622E-15     1.62481E-15
            5093               1     2.94394E-15     2.50276E-15     949.796E-18     575.717E-18
            5094               1     1.70664E-15     983.850E-18    -964.805E-18    -560.708E-18
            5095               1     1.27468E-15     1.56450E-15    -658.846E-18    -866.667E-18
            5096               1     1.51601E-15     1.47428E-15     308.641E-18     454.116E-18
            5097               1     1.26830E-15     1.15398E-15     467.971E-18     294.786E-18
            5098               1     885.871E-18     1.14328E-15     19.6276E-18    -19.6276E-18
            5099               1     2.03378E-15     2.35244E-15     122.756E-18     640.000E-18
            5100               1     1.69584E-15     2.04369E-15    -663.464E-18    -862.049E-18
            5101               1     1.14023E-15     1.36535E-15     185.103E-18     577.654E-18
            5102               1     1.40375E-15     1.12516E-15     469.125E-18     293.631E-18
            5103               1     2.35723E-15     2.02223E-15     336.350E-18     426.406E-18
            5104               1     1.00400E-15     1.00639E-15     16.1639E-18    -16.1639E-18
            5105               1     2.13078E-15     1.85672E-15    -1.21918E-15    -1.06909E-15
            5106               1     1.58492E-15     971.310E-18     553.408E-18     209.348E-18
            5107               1     4.03018E-15     3.95821E-15     1.56823E-15     1.48279E-15
            5108               1     2.32107E-15     2.51541E-15     751.211E-18     774.302E-18
            5109               1     1.97646E-15     1.78856E-15    -819.330E-18    -706.183E-18
            5110               1     3.01310E-15     3.06021E-15     33.4823E-18    -33.4823E-18
            5111               1     1.43397E-15     1.28250E-15     789.312E-18     736.202E-18
            5112               1     2.54257E-15     2.36368E-15     771.993E-18     753.520E-18
            5113               1     2.38118E-15     2.43377E-15     829.721E-18     695.792E-18
            5114               1     1.78872E-15     1.76276E-15     769.684E-18     755.829E-18
            5115               1     2.35800E-15     1.45261E-15    -1.10451E-15    -421.006E-18
            5116               1     4.13573E-15     3.99569E-15    -1.99464E-15    -1.81914E-15
            5117               1     1.20990E-15     1.17792E-15    -91.2105E-18     91.2105E-18
            5118               1     2.10554E-15     1.96783E-15     208.976E-18    -208.976E-18
            5119               1     1.18492E-15     1.52831E-15     649.609E-18     875.904E-18
            5120               1     948.104E-18     1.51446E-15    -189.721E-18    -573.036E-18
            5121               1     3.37600E-15     3.24398E-15    -1.53821E-15    -1.51281E-15
            5122               1     1.03023E-15     1.02826E-15     58.8827E-18    -58.8827E-18
            5123               1     738.310E-18     783.474E-18     365.214E-18     397.542E-18
            5124               1     149.578E-18     141.432E-18     38.1006E-18    -38.1006E-18
            5125               1     1.59611E-15     2.00782E-15     578.027E-18     947.487E-18
            5126               1     1.34250E-15     1.53262E-15    -708.492E-18    -817.021E-18
            5127               1     2.60835E-15     2.18826E-15    -886.295E-18    -639.218E-18
            5128               1     3.20846E-15     3.44667E-15    -1.39851E-15    -1.65252E-15
            5129               1     2.32995E-15     2.16535E-15    -27.7095E-18     27.7095E-18
            5130               1     1.44679E-15     1.29656E-15     807.785E-18     717.729E-18
            5131               1     2.45604E-15     1.96392E-15    -879.367E-18    -646.146E-18
            5132               1     342.249E-18     171.941E-18    -24.2458E-18     24.2458E-18
            5133               1     2.52105E-15     2.52511E-15    -821.639E-18    -703.874E-18
            5134               1     2.10452E-15     2.31396E-15     354.451E-18    -354.451E-18
            5135               1     1.53484E-15     1.13041E-15     880.522E-18     644.991E-18
            5136               1     2.37455E-15     2.10370E-15     349.051E-18     413.706E-18
            5137               1     3.02045E-15     2.81106E-15     1.17877E-15     1.10950E-15
            5138               1     2.18630E-15     2.08735E-15    -19.6276E-18     19.6276E-18
            5139               1     2.18317E-15     2.09940E-15    -55.4190E-18     55.4190E-18
            5140               1     3.95759E-15     4.16862E-15    -23.0913E-18     23.0913E-18
            5141               1     829.410E-18     499.357E-18    -477.207E-18    -285.550E-18
            5142               1     3.08850E-15     3.55577E-15    -1.32000E-15    -1.73103E-15
            5143               1     3.12045E-15     2.56883E-15    -1.34041E-15    -947.859E-18
            5144               1     1.10618E-15     1.58640E-15    -627.673E-18    -897.841E-18
            5145               1     355.076E-18     468.306E-18     26.5550E-18    -26.5550E-18
            5146               1     2.20566E-15     2.58942E-15    -651.919E-18    -873.595E-18
            5147               1     2.71712E-15     2.18240E-15    -897.841E-18    -627.673E-18
            5148               1     3.10803E-15     2.65509E-15     1.63751E-15     1.41352E-15
            5149               1     336.098E-18     464.651E-18     137.393E-18    -137.393E-18
            5150               1     2.18993E-15     1.83090E-15     12.7002E-18    -12.7002E-18
            5151               1     1.45074E-15     1.26701E-15     835.494E-18     690.019E-18
            5152               1     3.46436E-15     3.34546E-15    -1.58440E-15    -1.46663E-15
            5153               1     2.26679E-15     2.50051E-15    -13.8548E-18     13.8548E-18
            5154               1     1.98315E-15     2.25378E-15    -395.233E-18    -367.524E-18
            5155               1     2.07818E-15     1.95441E-15    -758.138E-18    -767.375E-18
            5156               1     1.04921E-15     994.959E-18     58.8827E-18    -58.8827E-18
            5157               1     1.01175E-15     1.00977E-15    -42.7188E-18     42.7188E-18
            5158               1     2.55332E-15     2.82699E-15    -1.44585E-15    -1.60518E-15
            5159               1     883.062E-18     782.935E-18    -396.388E-18    -366.369E-18
            5160               1     3.33707E-15     3.28958E-15     1.57285E-15     1.47818E-15
            5161               1     2.52178E-15     2.76997E-15     1.45508E-15     1.59594E-15
            5162               1     4.43761E-15     4.58785E-15     1.23419E-15     1.05408E-15
            5163               1     2.22159E-15     2.83897E-15     692.328E-18     833.185E-18
            5164               1     3.46952E-15     3.16012E-15     1.53475E-15     1.51628E-15
            5165               1     1.56654E-15     1.57580E-15     752.366E-18     773.148E-18
            5166               1     4.53500E-15     5.06041E-15     1.45162E-15     1.59941E-15
            5167               1     1.76359E-15     2.22515E-15     64.6555E-18    -64.6555E-18
            5168               1     2.94481E-15     2.34103E-15    -1.69985E-15    -1.35117E-15
            5169               1     1.33749E-15     1.35213E-15    -758.138E-18    -767.375E-18
            5170               1     2.07289E-15     2.65946E-15    -12.7002E-18     12.7002E-18
            5171               1     2.70158E-15     2.12804E-15     761.602E-18     763.911E-18
            5172               1     99.1766E-03     103.065E-03    -24.9577E-03    -24.2954E-03
            5173               1     105.308E-03     110.990E-03    -24.5795E-03    -24.4208E-03
            5174               1     114.197E-03     120.098E-03    -25.3798E-03    -25.0918E-03
            5175               1     122.560E-03     129.264E-03    -25.4323E-03    -25.4225E-03
            5176               1     132.010E-03     138.674E-03    -26.1389E-03    -26.0781E-03
            5177               1     141.004E-03     147.910E-03    -26.5757E-03    -26.5912E-03
            5178               1     150.380E-03     157.210E-03    -27.2641E-03    -27.2590E-03
            5179               1     159.492E-03     166.419E-03    -28.0532E-03    -28.0560E-03
            5180               1     168.765E-03     175.626E-03    -28.9271E-03    -28.9376E-03
            5181               1     177.887E-03     184.826E-03    -30.3205E-03    -30.3039E-03
            5182               1     187.097E-03     193.947E-03    -31.7083E-03    -31.7331E-03
            5183               1     196.204E-03     203.164E-03    -34.2026E-03    -34.1507E-03
            5184               1     205.434E-03     212.254E-03    -36.5621E-03    -36.6120E-03
            5185               1     214.672E-03     221.686E-03    -40.9688E-03    -40.8286E-03
            5186               1     224.652E-03     231.458E-03    -44.6098E-03    -44.7570E-03
            5187               1     235.250E-03     242.275E-03    -52.5776E-03    -52.2864E-03
            5188               1     250.808E-03     257.547E-03    -55.5064E-03    -55.9705E-03
            5189               1     273.654E-03     280.326E-03    -73.6139E-03    -72.8953E-03
            5190               1     358.312E-03     365.161E-03    -62.1723E-03    -63.3699E-03
            5191               1     101.690E-03     106.412E-03    -28.6040E-03    -27.9943E-03
            5192               1     109.927E-03     114.010E-03    -29.0137E-03    -28.1897E-03
            5193               1     117.344E-03     122.331E-03    -28.7106E-03    -28.5617E-03
            5194               1     126.893E-03     131.544E-03    -29.3982E-03    -29.1305E-03
            5195               1     135.429E-03     140.527E-03    -29.5818E-03    -29.6064E-03
            5196               1     144.863E-03     149.843E-03    -30.1351E-03    -30.0819E-03
            5197               1     153.764E-03     158.904E-03    -30.5575E-03    -30.5804E-03
            5198               1     163.164E-03     168.270E-03    -31.1004E-03    -31.1079E-03
            5199               1     172.271E-03     177.430E-03    -31.8600E-03    -31.8412E-03
            5200               1     181.815E-03     186.973E-03    -32.6060E-03    -32.6503E-03
            5201               1     191.115E-03     196.282E-03    -34.0106E-03    -33.9359E-03
            5202               1     201.029E-03     206.184E-03    -35.2936E-03    -35.3745E-03
            5203               1     210.531E-03     215.690E-03    -37.8557E-03    -37.6868E-03
            5204               1     221.585E-03     226.635E-03    -40.2476E-03    -40.3743E-03
            5205               1     231.057E-03     236.210E-03    -44.5535E-03    -44.2515E-03
            5206               1     247.424E-03     252.288E-03    -49.0034E-03    -49.2746E-03
            5207               1     254.683E-03     259.959E-03    -54.1411E-03    -54.0924E-03
            5208               1     300.318E-03     303.802E-03    -58.2570E-03    -58.6753E-03
            5209               1     290.931E-03     294.599E-03    -14.4252E-03    -17.5274E-03
            5210               1     106.919E-03     111.074E-03    -33.6982E-03    -33.2918E-03
            5211               1     113.058E-03     117.164E-03    -32.6621E-03    -32.5314E-03
            5212               1     122.349E-03     125.532E-03    -32.9428E-03    -32.6733E-03
            5213               1     130.292E-03     133.841E-03    -32.9630E-03    -32.9931E-03
            5214               1     139.575E-03     142.766E-03    -33.3280E-03    -33.2277E-03
            5215               1     148.047E-03     151.458E-03    -33.4641E-03    -33.5038E-03
            5216               1     157.252E-03     160.588E-03    -33.7099E-03    -33.6890E-03
            5217               1     166.024E-03     169.439E-03    -33.9330E-03    -33.9313E-03
            5218               1     175.399E-03     178.834E-03    -34.1537E-03    -34.1843E-03
            5219               1     184.414E-03     187.841E-03    -34.5953E-03    -34.5374E-03
            5220               1     194.220E-03     197.702E-03    -34.9331E-03    -35.0165E-03
            5221               1     203.474E-03     206.899E-03    -35.8083E-03    -35.6818E-03
            5222               1     214.281E-03     217.700E-03    -36.5919E-03    -36.7234E-03
            5223               1     223.666E-03     227.085E-03    -37.9875E-03    -37.7856E-03
            5224               1     237.472E-03     240.608E-03    -40.1450E-03    -40.2860E-03
            5225               1     245.947E-03     249.511E-03    -40.1694E-03    -40.0179E-03
            5226               1     269.840E-03     272.949E-03    -45.5560E-03    -45.7196E-03
            5227               1     267.181E-03     271.306E-03    -24.3034E-03    -26.4731E-03
            5228               1     252.787E-03     258.994E-03    -10.6286E-03    -10.0757E-03
            5229               1     111.018E-03     114.041E-03    -38.6182E-03    -38.7895E-03
            5230               1     118.919E-03     121.395E-03    -37.4087E-03    -37.7464E-03
            5231               1     126.250E-03     128.501E-03    -37.1702E-03    -37.3438E-03
            5232               1     134.950E-03     136.622E-03    -37.0579E-03    -37.0935E-03
            5233               1     142.895E-03     144.689E-03    -37.0047E-03    -37.0724E-03
            5234               1     151.634E-03     153.264E-03    -36.9358E-03    -36.9070E-03
            5235               1     159.928E-03     161.644E-03    -36.7968E-03    -36.8108E-03
            5236               1     168.826E-03     170.543E-03    -36.6354E-03    -36.6374E-03
            5237               1     177.335E-03     179.053E-03    -36.4189E-03    -36.3857E-03
            5238               1     186.536E-03     188.325E-03    -36.1237E-03    -36.1801E-03
            5239               1     195.148E-03     196.868E-03    -35.7926E-03    -35.7091E-03
            5240               1     204.971E-03     206.777E-03    -35.3475E-03    -35.4654E-03
            5241               1     213.605E-03     215.336E-03    -34.7016E-03    -34.5906E-03
            5242               1     224.810E-03     226.459E-03    -34.3055E-03    -34.4449E-03
            5243               1     233.375E-03     235.162E-03    -31.9776E-03    -31.9248E-03
            5244               1     246.791E-03     248.082E-03    -32.1791E-03    -32.1112E-03
            5245               1     255.659E-03     257.749E-03    -20.4017E-03    -20.6861E-03
            5246               1     252.028E-03     256.824E-03    -20.4700E-03    -19.9084E-03
            5247               1     234.755E-03     237.423E-03    -276.400E-06    -2.72962E-03
            5248               1     117.285E-03     118.649E-03    -43.9555E-03    -44.9127E-03
            5249               1     124.008E-03     124.635E-03    -42.8404E-03    -43.2896E-03
            5250               1     131.392E-03     131.715E-03    -41.6985E-03    -42.0792E-03
            5251               1     138.785E-03     138.999E-03    -41.3711E-03    -41.5057E-03
            5252               1     146.720E-03     146.784E-03    -40.8286E-03    -40.8632E-03
            5253               1     154.526E-03     154.615E-03    -40.4534E-03    -40.4804E-03
            5254               1     162.783E-03     162.852E-03    -39.9898E-03    -39.9752E-03
            5255               1     170.791E-03     170.848E-03    -39.4337E-03    -39.4211E-03
            5256               1     179.236E-03     179.344E-03    -38.8108E-03    -38.8301E-03
            5257               1     187.185E-03     187.220E-03    -37.8734E-03    -37.8269E-03
            5258               1     195.796E-03     195.941E-03    -36.8505E-03    -36.9217E-03
            5259               1     203.398E-03     203.426E-03    -35.1035E-03    -35.0338E-03
            5260               1     212.311E-03     212.463E-03    -33.3358E-03    -33.4612E-03
            5261               1     219.294E-03     219.375E-03    -29.7260E-03    -29.7100E-03
            5262               1     228.068E-03     228.065E-03    -26.5853E-03    -26.6612E-03
            5263               1     234.937E-03     235.027E-03    -17.8958E-03    -18.0368E-03
            5264               1     235.589E-03     235.686E-03    -11.0181E-03    -10.4825E-03
            5265               1     247.427E-03     247.228E-03     3.29320E-03     4.39415E-03
            5266               1     217.613E-03     225.706E-03     1.70078E-03     3.51646E-03
            5267               1     123.588E-03     121.360E-03    -50.2611E-03    -50.6002E-03
            5268               1     129.043E-03     127.431E-03    -47.6288E-03    -48.0633E-03
            5269               1     135.840E-03     134.207E-03    -46.6519E-03    -46.7395E-03
            5270               1     142.585E-03     141.186E-03    -45.3474E-03    -45.4547E-03
            5271               1     150.010E-03     148.531E-03    -44.7387E-03    -44.7507E-03
            5272               1     157.531E-03     156.109E-03    -43.9547E-03    -43.9611E-03
            5273               1     165.202E-03     163.680E-03    -43.2900E-03    -43.2849E-03
            5274               1     172.965E-03     171.481E-03    -42.5299E-03    -42.5306E-03
            5275               1     180.487E-03     178.896E-03    -41.4794E-03    -41.4673E-03
            5276               1     188.121E-03     186.607E-03    -40.3825E-03    -40.3972E-03
            5277               1     195.047E-03     193.391E-03    -38.4471E-03    -38.4273E-03
            5278               1     202.175E-03     200.679E-03    -36.5297E-03    -36.5655E-03
            5279               1     207.809E-03     206.134E-03    -32.7009E-03    -32.6886E-03
            5280               1     213.658E-03     212.253E-03    -28.9579E-03    -29.0137E-03
            5281               1     216.920E-03     215.383E-03    -21.2317E-03    -21.2778E-03
            5282               1     218.358E-03     217.087E-03    -12.9785E-03    -12.9660E-03
            5283               1     219.215E-03     217.495E-03    -346.473E-06    -213.481E-06
            5284               1     212.750E-03     210.572E-03     18.2484E-03     18.8289E-03
            5285               1     229.486E-03     223.443E-03     29.0908E-03     32.7568E-03
            5286               1     92.4983E-03     94.5694E-03    -27.5065E-03    -27.5501E-03
            5287               1     99.4031E-03     101.519E-03    -27.5065E-03    -27.5501E-03
            5288               1     106.455E-03     108.606E-03    -27.5065E-03    -27.5501E-03
            5289               1     113.626E-03     115.807E-03    -27.5065E-03    -27.5501E-03
            5290               1     120.896E-03     123.100E-03    -27.5065E-03    -27.5501E-03
            5291               1     128.248E-03     130.472E-03    -27.5065E-03    -27.5501E-03
            5292               1     135.667E-03     137.908E-03    -27.5065E-03    -27.5501E-03
            5293               1     143.145E-03     145.400E-03    -27.5065E-03    -27.5501E-03
            5294               1     150.671E-03     152.938E-03    -27.5065E-03    -27.5501E-03
            5295               1     158.240E-03     160.517E-03    -27.5065E-03    -27.5501E-03
            5296               1     165.845E-03     168.131E-03    -27.5065E-03    -27.5501E-03
            5297               1     173.482E-03     175.775E-03    -27.5065E-03    -27.5501E-03
            5298               1     181.146E-03     183.446E-03    -27.5065E-03    -27.5501E-03
            5299               1     188.834E-03     191.140E-03    -27.5065E-03    -27.5501E-03
            5300               1     196.544E-03     198.855E-03    -27.5065E-03    -27.5501E-03
            5301               1     204.273E-03     206.588E-03    -27.5065E-03    -27.5501E-03
            5302               1     212.018E-03     214.338E-03    -27.5065E-03    -27.5501E-03
            5303               1     219.779E-03     222.102E-03    -27.5065E-03    -27.5501E-03
            5304               1     227.553E-03     229.880E-03    -27.5065E-03    -27.5501E-03
            5305               1     91.7395E-03     99.9190E-03    -22.2860E-03    -24.5163E-03
            5306               1     91.8242E-03     96.1669E-03    -23.1545E-03    -23.2600E-03
            5307               1     101.079E-03     102.129E-03    -32.6736E-03    -32.8790E-03
            5308               1     98.0607E-03     103.267E-03    -28.8301E-03    -28.8165E-03
            5309               1     105.001E-03     109.363E-03    -41.8650E-03    -41.6338E-03
            5310               1     104.799E-03     107.306E-03    -37.1064E-03    -36.0093E-03
            5311               1     113.154E-03     112.511E-03    -50.9867E-03    -49.1947E-03
            5312               1     107.466E-03     111.305E-03    -43.3484E-03    -42.9478E-03
            5313               1     115.932E-03     116.087E-03    -58.4172E-03    -56.5314E-03
            5314               1     109.131E-03     111.014E-03    -46.4872E-03    -47.4498E-03
            5315               1     112.244E-03     110.442E-03    -58.5309E-03    -59.1902E-03
            5316               1     117.166E-03     114.996E-03    -52.1080E-03    -52.9261E-03
            5317               1     79.0856E-03     81.0284E-03    -27.5065E-03    -27.5501E-03
            5318               1     85.7076E-03     87.7225E-03    -27.5065E-03    -27.5501E-03
            5319               1     1.33939E-15     1.32457E-15     45.0280E-18    -45.0280E-18
            5320               1     4.11657E-15     3.81685E-15    -2.37486E-15    -2.20168E-15
            5321               1     2.64651E-15     2.77614E-15    -744.284E-18    -781.230E-18
            5322               1     1.69606E-15     1.64761E-15    -782.384E-18    -743.129E-18
            5323               1     1.02334E-15     1.62247E-15     589.572E-18     935.941E-18
            5324               1     1.76606E-15     1.57164E-15     828.567E-18     696.946E-18
            5325               1     1.39908E-15     1.99618E-15    -595.345E-18    -930.168E-18
            5326               1     1.35562E-15     1.69618E-15    -103.911E-18     103.911E-18
            5327               1     1.98795E-15     1.62391E-15    -929.014E-18    -596.500E-18
            5328               1     585.350E-18     488.889E-18     61.1919E-18    -61.1919E-18
            5329               1     2.02321E-15     2.01533E-15     85.4377E-18    -85.4377E-18
            5330               1     2.47974E-15     2.33510E-15     732.738E-18     792.775E-18
            5331               1     1.50356E-15     1.37374E-15     810.094E-18     715.420E-18
            5332               1     3.49176E-15     3.30890E-15     1.53590E-15     1.51512E-15
            5333               1     133.444E-03     134.114E-03    -17.8960E-03    -17.9397E-03
            5334               1     131.767E-03     145.722E-03    -28.4942E-03    -30.4704E-03
            5335               1     171.378E-03     143.803E-03    -26.6062E-03    -27.6519E-03
            5336               1     155.888E-03     166.342E-03    -28.6635E-03    -26.9322E-03
            5337               1     161.578E-03     181.763E-03    -26.2719E-03    -28.0269E-03
            5338               1     206.761E-03     159.566E-03    -29.1019E-03    -27.4441E-03
            5339               1     155.296E-03     190.965E-03    -26.1251E-03    -23.2852E-03
            5340               1     98.4758E-03     98.5505E-03    -24.0663E-03    -24.1100E-03
            5341               1     104.411E-03     113.870E-03    -35.4285E-03    -37.5526E-03
            5342               1     129.307E-03     110.821E-03    -35.4760E-03    -34.4672E-03
            5343               1     120.558E-03     124.654E-03    -36.5199E-03    -34.4778E-03
            5344               1     122.378E-03     136.119E-03    -34.6449E-03    -36.8372E-03
            5345               1     155.372E-03     124.250E-03    -37.0324E-03    -36.9086E-03
            5346               1     120.816E-03     143.465E-03    -35.2370E-03    -32.2836E-03
            5347               1     69.5157E-03     69.1677E-03    -28.7900E-03    -28.8337E-03
            5348               1     84.2093E-03     90.2546E-03    -40.3231E-03    -42.7839E-03
            5349               1     91.4442E-03     86.5546E-03    -38.2625E-03    -39.9603E-03
            5350               1     90.7638E-03     92.1006E-03    -41.5031E-03    -40.1246E-03
            5351               1     92.0136E-03     100.351E-03    -40.7464E-03    -42.7705E-03
            5352               1     111.124E-03     95.4519E-03    -45.4905E-03    -42.7608E-03
            5353               1     94.4586E-03     99.6959E-03    -42.3431E-03    -38.0108E-03
            5354               1     55.9261E-03     55.7992E-03    -31.7452E-03    -31.7889E-03
            5355               1     72.9181E-03     83.5119E-03    -41.4583E-03    -48.0474E-03
            5356               1     73.3957E-03     81.1587E-03    -41.6719E-03    -45.9403E-03
            5357               1     80.0009E-03     78.7033E-03    -44.8869E-03    -44.0915E-03
            5358               1     76.5452E-03     79.2818E-03    -42.9447E-03    -44.1484E-03
            5359               1     84.4833E-03     74.4598E-03    -47.6927E-03    -41.6854E-03
            5360               1     77.8311E-03     64.7036E-03    -44.1905E-03    -36.8444E-03
            5361               1     61.1114E-03     61.8257E-03    -32.7305E-03    -32.7742E-03
            5362               1     96.3494E-03     98.3593E-03    -54.5796E-03    -54.0144E-03
            5363               1     88.2244E-03     88.3366E-03    -48.9990E-03    -49.1881E-03
            5364               1     81.6330E-03     79.3346E-03    -45.2190E-03    -43.9012E-03
            5365               1     71.4242E-03     75.4263E-03    -39.2218E-03    -39.8778E-03
            5366               1     75.2773E-03     71.5271E-03    -37.3430E-03    -37.5376E-03
            5367               1     61.8474E-03     69.5397E-03    -32.0549E-03    -30.3494E-03
            5368               1     73.1873E-03     74.6280E-03    -31.6788E-03    -31.7225E-03
            5369               1     101.111E-03     95.4683E-03    -56.0742E-03    -51.8604E-03
            5370               1     95.6959E-03     87.3159E-03    -49.5782E-03    -44.2108E-03
            5371               1     82.9462E-03     81.9430E-03    -37.4651E-03    -37.6684E-03
            5372               1     81.2282E-03     85.7058E-03    -34.3846E-03    -33.2642E-03
            5373               1     83.5565E-03     77.4188E-03    -23.2944E-03    -27.8237E-03
            5374               1     72.1447E-03     89.6925E-03    -15.7982E-03    -21.2668E-03
            5431               1     2.05543E-15     2.06718E-15    -102.756E-18     102.756E-18
            5432               1     1.57629E-15     1.84425E-15     767.375E-18     758.138E-18
            5433               1     3.62349E-15     2.51390E-15    -503.762E-18    -258.995E-18
            5434               1     3.68229E-15     2.86431E-15     795.084E-18     730.429E-18
            5435               1     2.36026E-15     1.91830E-15     21.9367E-18    -21.9367E-18
            5436               1     1.63485E-15     1.41647E-15     805.475E-18     720.038E-18
            5437               1     3.32171E-15     3.67209E-15    -1.49896E-15    -1.55207E-15
            5438               1     1.86748E-15     2.14445E-15    -696.946E-18    -828.567E-18
            5439               1     1.00566E-15     1.12760E-15    -10.3911E-18     10.3911E-18
            5440               1     2.23388E-15     1.88513E-15    -15.0093E-18     15.0093E-18
            5441               1     2.96213E-15     2.46339E-15    -778.920E-18    -746.593E-18
            5442               1     1.83224E-15     1.22585E-15    -42.7188E-18     42.7188E-18
            5443               1     2.91842E-15     2.74911E-15    -1.53821E-15    -1.51281E-15
            5444               1     1.51556E-15     856.661E-18    -13.8548E-18     13.8548E-18
            5445               1     1.76904E-15     607.660E-18     20.7821E-18    -20.7821E-18
            5446               1     4.18585E-15     3.89445E-15     2.38641E-15     2.19013E-15
            5447               1     1.42089E-15     808.732E-18    -80.8194E-18     80.8194E-18
            5448               1     2.06976E-15     2.21294E-15     78.5103E-18    -78.5103E-18
            5449               1     2.24485E-15     2.81864E-15    -822.794E-18    -702.719E-18
            5450               1     2.84709E-15     2.81585E-15    -1.23304E-15    -1.05523E-15
            5451               1     2.25446E-15     1.11945E-15     1.12875E-15     396.760E-18
            5452               1     1.03791E-15     1.05158E-15    -131.620E-18     131.620E-18
            5453               1     1.07343E-15     1.61246E-15    -604.581E-18    -920.932E-18
            5454               1     1.65722E-15     1.66309E-15     760.447E-18     765.066E-18
            5455               1     1.84576E-15     1.56627E-15    -878.213E-18    -647.300E-18
            5456               1     1.46183E-15     993.316E-18    -196.276E-18     196.276E-18
            5457               1     1.10229E-15     1.61029E-15    -598.809E-18    -926.705E-18
            5458               1     1.93870E-15     1.47592E-15    -927.859E-18    -597.654E-18
            5459               1     277.512E-18     324.571E-18     40.4097E-18    -40.4097E-18
            5460               1     2.07907E-15     1.67885E-15     860.894E-18     664.619E-18
            5461               1     1.10643E-15     1.09051E-15     4.61825E-18    -4.61825E-18
            5462               1     2.96741E-15     2.35148E-15     1.70447E-15     1.34656E-15
            5463               1     1.86612E-15     1.87952E-15     724.656E-18     800.857E-18
            5464               1     3.24413E-15     3.32632E-15     784.693E-18     740.820E-18
            5465               1     3.72326E-15     3.40833E-15     758.138E-18     767.375E-18
            5466               1     1.88006E-15     1.46661E-15    -917.468E-18    -608.045E-18
            5467               1     3.09235E-15     2.57786E-15     1.70216E-15     1.34887E-15
            5468               1     2.84281E-15     3.27073E-15     1.36157E-15     1.68946E-15
            5469               1     167.980E-18     167.980E-18     96.9833E-18    -96.9833E-18
            5470               1     2.07458E-15     2.03099E-15    -234.376E-18     234.376E-18
            5471               1     1.62009E-15     1.71715E-15    -703.874E-18    -821.639E-18
            5472               1     247.511E-18     247.511E-18    -80.8194E-18     80.8194E-18
            5473               1     4.12062E-15     4.05782E-15     2.29866E-15     2.27788E-15
            5474               1     2.40572E-15     2.41714E-15    -688.865E-18    -836.649E-18
            5475               1     468.932E-18     317.807E-18     158.175E-18    -158.175E-18
            5476               1     2.28982E-15     2.54660E-15    -767.375E-18    -758.138E-18
            5477               1     1.73113E-15     1.18393E-15     976.351E-18     549.162E-18
            5478               1     1.97581E-15     1.58515E-15    -892.068E-18    -633.446E-18
            5479               1     96.0405E-18     96.0405E-18    -31.1732E-18     31.1732E-18
            5480               1     1.98848E-15     1.55348E-15     808.939E-18     716.574E-18
            5481               1     2.47363E-15     3.32832E-15     1.26458E-15     1.78644E-15
            5482               1     1.93583E-15     1.41001E-15     937.096E-18     588.418E-18
            5483               1     2.05893E-15     1.31519E-15    -1.01330E-15    -512.216E-18
            5484               1     1.59601E-15     1.81617E-15     765.066E-18     760.447E-18
            5485               1     4.21749E-15     3.70957E-15     2.43490E-15     2.14164E-15
            5486               1     2.36949E-15     2.50266E-15     564.172E-18     961.342E-18
            5487               1     2.62049E-15     3.56135E-15    -1.17453E-15    -1.87650E-15
            5488               1     1.12812E-15     944.485E-18     145.475E-18    -145.475E-18
            5489               1     2.42783E-15     2.89671E-15    -1.38119E-15    -1.66983E-15
            5490               1     1.54064E-15     1.13826E-15     880.522E-18     644.991E-18
            5491               1     1.84463E-15     1.69025E-15    -774.302E-18    -751.211E-18
            5492               1     2.65362E-15     2.40362E-15     937.096E-18     588.418E-18
            5493               1     2.13554E-15     1.65840E-15    -964.805E-18    -560.708E-18
            5494               1     1.58865E-15     1.84610E-15     715.420E-18     810.094E-18
            5495               1     3.06515E-15     2.71833E-15    -1.60171E-15    -1.44931E-15
            5496               1     1.35437E-15     1.13563E-15    -241.304E-18     241.304E-18
            5497               1     2.31329E-15     2.59385E-15    -638.064E-18    -887.449E-18
            5498               1     2.38186E-15     2.43526E-15    -692.328E-18    -833.185E-18
            5499               1     1.85863E-15     1.79212E-15    -804.321E-18    -721.192E-18
            5500               1     1.33064E-15     1.50651E-15    -731.583E-18    -793.930E-18
            5501               1     2.16779E-15     1.87524E-15    -28.8641E-18     28.8641E-18
            5502               1     1.20638E-15     1.24422E-15     168.566E-18    -168.566E-18
            5503               1     2.16316E-15     2.08252E-15    -43.8734E-18     43.8734E-18
            5504               1     4.12253E-15     3.94148E-15    -1.56015E-15    -1.49088E-15
            5505               1     2.71982E-15     2.60065E-15    -1.56015E-15    -1.49088E-15
            5506               1     1.80086E-15     2.07953E-15    -924.395E-18    -601.118E-18
            5507               1     1.12251E-15     967.486E-18    -69.2738E-18     69.2738E-18
            5508               1     1.64529E-15     1.03391E-15    -941.714E-18    -583.799E-18
            5509               1     1.58559E-15     1.07277E-15    -911.695E-18    -613.818E-18
            5510               1     1.14907E-15     881.526E-18    -17.3184E-18     17.3184E-18
            5511               1     2.41133E-15     2.49503E-15     665.773E-18     859.740E-18
            5512               1     2.18454E-15     2.26652E-15     83.1286E-18    -83.1286E-18
            5513               1     1.44191E-15     1.20716E-15     49.6462E-18    -49.6462E-18
            5514               1     2.74303E-15     2.95897E-15    -1.45739E-15    -1.59363E-15
            5515               1     1.53055E-15     1.90430E-15    -587.263E-18    -938.250E-18
            5516               1     2.55308E-15     2.75714E-15     1.46317E-15     1.58786E-15
            5517               1     1.87364E-15     1.47670E-15    -919.777E-18    -605.736E-18
            5518               1     1.58822E-15     1.97318E-15    -624.209E-18    -901.304E-18
            5519               1     1.21382E-15     1.17536E-15    -84.2831E-18     84.2831E-18
            5520               1     4.40818E-15     4.59241E-15     2.29289E-15     2.28365E-15
            5521               1     371.380E-18     371.380E-18    -180.112E-18     180.112E-18
            5522               1     1.00397E-15     1.02872E-15    -62.3464E-18     62.3464E-18
            5523               1     1.76736E-15     1.62988E-15     821.639E-18     703.874E-18
            5524               1     1.87077E-15     1.70058E-15    -754.675E-18    -770.839E-18
            5525               1     2.47096E-15     2.85837E-15     575.717E-18     949.796E-18
            5526               1     1.69236E-15     1.62722E-15    -777.766E-18    -747.747E-18
            5527               1     624.924E-18     560.839E-18     181.266E-18    -181.266E-18
            5528               1     1.40631E-15     1.29326E-15     42.7188E-18    -42.7188E-18
            5529               1     2.84550E-15     2.85614E-15    -1.49203E-15    -1.55900E-15
            5530               1     2.55974E-15     2.86717E-15    -646.146E-18    -879.367E-18
            5531               1     1.20228E-15     1.64668E-15     606.891E-18     918.623E-18
            5532               1     3.89039E-15     4.05937E-15    -2.24324E-15    -2.33330E-15
            5533               1     1.64410E-15     1.68504E-15    -797.393E-18    -728.120E-18
            5534               1     2.60422E-15     2.32426E-15    -929.014E-18    -596.500E-18
            5535               1     1.20816E-15     943.612E-18    -68.1192E-18     68.1192E-18
            5536               1     2.72530E-15     3.19059E-15    -1.38235E-15    -1.66868E-15
            5537               1     3.40280E-15     3.13559E-15    -1.57054E-15    -1.48049E-15
            5538               1     928.177E-18     1.10944E-15    -39.2551E-18     39.2551E-18
            5539               1     3.04550E-15     2.86376E-15    -1.58555E-15    -1.46548E-15
            5540               1     1.14518E-15     1.23732E-15     81.9740E-18    -81.9740E-18
            5541               1     1.25489E-15     909.683E-18     120.075E-18    -120.075E-18
            5542               1     4.38898E-15     4.27346E-15     648.455E-18     877.058E-18
            5543               1     264.164E-18     264.164E-18     69.2738E-18    -69.2738E-18
            5544               1     1.03060E-15     1.06750E-15     137.393E-18    -137.393E-18
            5545               1     1.29054E-15     1.46122E-15     713.110E-18     812.403E-18
            5546               1     1.69194E-15     1.70851E-15    -736.202E-18    -789.312E-18
            5547               1     2.48785E-15     2.41777E-15    -848.194E-18    -677.319E-18
            5548               1     1.56859E-15     1.26343E-15     849.349E-18     676.164E-18
            5549               1     1.69635E-15     1.64514E-15    -817.021E-18    -708.492E-18
            5550               1     1.85979E-15     2.12841E-15     63.5010E-18    -63.5010E-18
            5551               1     2.07287E-15     2.06397E-15    -109.684E-18     109.684E-18
            5552               1     2.51620E-15     2.30227E-15     885.140E-18     640.373E-18
            5553               1     832.141E-18     1.22697E-15    -35.7915E-18     35.7915E-18
            5554               1     373.599E-18     373.599E-18     36.9460E-18    -36.9460E-18
            5555               1     2.56400E-15     2.25209E-15     721.192E-18     804.321E-18
            5556               1     2.51971E-15     2.65191E-15    -715.420E-18    -810.094E-18
            5557               1     1.56096E-15     1.30875E-15     880.522E-18     644.991E-18
            5558               1     2.06261E-15     1.95521E-15    -76.2012E-18     76.2012E-18
            5559               1     4.87264E-15     4.59153E-15     68.1192E-18    -68.1192E-18
            5560               1     3.51099E-15     3.13093E-15    -1.57978E-15    -1.47125E-15
            5561               1     2.87897E-15     2.81569E-15    -703.874E-18    -821.639E-18
            5562               1     2.27840E-15     2.74544E-15    -690.019E-18    -835.494E-18
            5563               1     1.38539E-15     1.38539E-15    -762.757E-18    -762.757E-18
            5564               1     317.974E-03     322.837E-03     51.1307E-03     48.9059E-03
            5565               1     221.881E-03     221.822E-03     60.4980E-03     58.4551E-03
            5566               1     182.841E-03     181.400E-03     43.8909E-03     43.9638E-03
            5567               1     155.061E-03     152.867E-03     44.3862E-03     43.7116E-03
            5568               1     131.257E-03     128.648E-03     37.9403E-03     37.9948E-03
            5569               1     112.086E-03     109.364E-03     37.1344E-03     36.8988E-03
            5570               1     93.4882E-03     90.8444E-03     33.7471E-03     33.7898E-03
            5571               1     78.2502E-03     75.8354E-03     32.8851E-03     32.8019E-03
            5572               1     64.2721E-03     62.4862E-03     31.0132E-03     31.0669E-03
            5573               1     55.6549E-03     54.6532E-03     30.6597E-03     30.6233E-03
            5574               1     51.8057E-03     52.1675E-03     29.8929E-03     29.9730E-03
            5575               1     56.2671E-03     57.5324E-03     30.3296E-03     30.2998E-03
            5576               1     65.5038E-03     67.5943E-03     30.5256E-03     30.6666E-03
            5577               1     79.4536E-03     81.7391E-03     31.9624E-03     31.9015E-03
            5578               1     94.9682E-03     97.3806E-03     32.9971E-03     33.2720E-03
            5579               1     112.711E-03     115.062E-03     35.7955E-03     35.5700E-03
            5580               1     131.221E-03     133.393E-03     37.3945E-03     37.9508E-03
            5581               1     151.849E-03     154.099E-03     42.6002E-03     41.6989E-03
            5582               1     174.379E-03     176.778E-03     44.0049E-03     45.0204E-03
            5583               1     266.449E-03     257.649E-03     12.8029E-03     12.6347E-03
            5584               1     248.705E-03     244.618E-03     52.2533E-03     50.4732E-03
            5585               1     189.625E-03     187.104E-03     51.2660E-03     49.5804E-03
            5586               1     166.929E-03     164.198E-03     46.7329E-03     46.4408E-03
            5587               1     140.354E-03     137.708E-03     45.4681E-03     44.7164E-03
            5588               1     121.092E-03     118.666E-03     41.7069E-03     41.6822E-03
            5589               1     102.682E-03     100.259E-03     40.4524E-03     40.1551E-03
            5590               1     86.7735E-03     84.9178E-03     38.0556E-03     38.1357E-03
            5591               1     74.1863E-03     72.5599E-03     37.3052E-03     37.1828E-03
            5592               1     64.8305E-03     64.3227E-03     36.0134E-03     36.1636E-03
            5593               1     62.4048E-03     62.4437E-03     36.0133E-03     35.9401E-03
            5594               1     65.1806E-03     66.5908E-03     35.6671E-03     35.9193E-03
            5595               1     74.8517E-03     76.3975E-03     36.5691E-03     36.4805E-03
            5596               1     87.3958E-03     89.8423E-03     37.0597E-03     37.5053E-03
            5597               1     103.417E-03     105.541E-03     39.0808E-03     38.8601E-03
            5598               1     120.809E-03     123.495E-03     40.2637E-03     41.0285E-03
            5599               1     139.727E-03     142.013E-03     43.8321E-03     43.0747E-03
            5600               1     161.741E-03     164.074E-03     45.4721E-03     46.5152E-03
            5601               1     183.066E-03     185.362E-03     51.0353E-03     48.7175E-03
            5602               1     229.942E-03     229.052E-03     13.1402E-03     12.4717E-03
            5603               1     219.376E-03     214.771E-03     28.6504E-03     28.5981E-03
            5604               1     203.997E-03     199.590E-03     48.4849E-03     47.4287E-03
            5605               1     167.467E-03     164.705E-03     47.7621E-03     46.7625E-03
            5606               1     150.331E-03     147.496E-03     47.6433E-03     47.3706E-03
            5607               1     127.149E-03     124.708E-03     46.0441E-03     45.5231E-03
            5608               1     110.680E-03     108.711E-03     44.1604E-03     44.1755E-03
            5609               1     94.3336E-03     92.4439E-03     42.9644E-03     42.7308E-03
            5610               1     81.6719E-03     80.6567E-03     41.5018E-03     41.6430E-03
            5611               1     73.3855E-03     72.5644E-03     41.0384E-03     40.9127E-03
            5612               1     69.8636E-03     70.3873E-03     40.3197E-03     40.5616E-03
            5613               1     73.5892E-03     74.2607E-03     40.6543E-03     40.5438E-03
            5614               1     81.6721E-03     83.6058E-03     40.6895E-03     41.0895E-03
            5615               1     94.7550E-03     96.4534E-03     41.8729E-03     41.7076E-03
            5616               1     110.114E-03     112.633E-03     42.6216E-03     43.2521E-03
            5617               1     127.315E-03     129.650E-03     44.6631E-03     44.3007E-03
            5618               1     147.568E-03     149.737E-03     46.0471E-03     46.7930E-03
            5619               1     166.230E-03     169.187E-03     48.2506E-03     47.4929E-03
            5620               1     193.824E-03     193.600E-03     50.3094E-03     49.8951E-03
            5621               1     215.223E-03     210.014E-03     10.7755E-03     10.1239E-03
            5622               1     204.267E-03     201.068E-03     29.0503E-03     28.2361E-03
            5623               1     187.941E-03     184.720E-03     36.8620E-03     36.6870E-03
            5624               1     175.397E-03     171.649E-03     47.7173E-03     47.0938E-03
            5625               1     149.528E-03     147.117E-03     47.0287E-03     46.5542E-03
            5626               1     134.447E-03     132.138E-03     48.0949E-03     47.9743E-03
            5627               1     114.708E-03     112.768E-03     46.7252E-03     46.4391E-03
            5628               1     100.594E-03     99.2815E-03     45.9553E-03     46.0512E-03
            5629               1     87.6730E-03     86.4072E-03     45.1503E-03     44.9781E-03
            5630               1     79.4195E-03     79.2145E-03     44.4187E-03     44.6112E-03
            5631               1     76.7458E-03     76.5915E-03     44.2888E-03     44.1481E-03
            5632               1     79.2847E-03     80.4438E-03     44.0220E-03     44.3192E-03
            5633               1     87.9185E-03     88.9485E-03     44.5188E-03     44.3588E-03
            5634               1     100.005E-03     102.045E-03     44.8052E-03     45.2440E-03
            5635               1     115.040E-03     117.007E-03     45.7641E-03     45.5775E-03
            5636               1     132.897E-03     134.976E-03     46.6266E-03     47.1072E-03
            5637               1     150.075E-03     153.060E-03     47.2634E-03     47.2020E-03
            5638               1     172.536E-03     173.287E-03     48.4751E-03     48.3415E-03
            5639               1     189.858E-03     193.004E-03     45.1104E-03     46.3467E-03
            5640               1     196.798E-03     193.985E-03     12.4517E-03     12.0739E-03
            5641               1     191.269E-03     187.562E-03     24.4917E-03     24.2097E-03
            5642               1     182.825E-03     179.200E-03     38.0124E-03     37.4377E-03
            5643               1     166.314E-03     163.839E-03     41.3854E-03     41.3734E-03
            5644               1     154.030E-03     151.305E-03     47.8736E-03     47.6417E-03
            5645               1     133.430E-03     131.580E-03     47.2140E-03     47.0639E-03
            5646               1     119.423E-03     117.923E-03     48.4910E-03     48.5558E-03
            5647               1     103.384E-03     102.010E-03     47.7393E-03     47.5766E-03
            5648               1     92.4013E-03     91.7716E-03     47.6372E-03     47.7898E-03
            5649               1     84.3042E-03     83.6060E-03     47.2971E-03     47.1369E-03
            5650               1     81.5377E-03     81.9479E-03     47.0525E-03     47.2591E-03
            5651               1     84.5512E-03     84.8337E-03     47.1063E-03     46.9230E-03
            5652               1     92.1697E-03     93.5449E-03     47.0625E-03     47.3396E-03
            5653               1     103.985E-03     105.254E-03     47.3293E-03     47.1344E-03
            5654               1     118.775E-03     120.573E-03     47.5819E-03     47.8787E-03
            5655               1     134.510E-03     136.854E-03     47.4573E-03     47.4581E-03
            5656               1     153.522E-03     154.941E-03     47.9469E-03     47.9226E-03
            5657               1     169.828E-03     173.171E-03     45.5399E-03     46.4705E-03
            5658               1     188.410E-03     189.752E-03     44.5779E-03     43.7942E-03
            5659               1     183.967E-03     180.293E-03     13.5083E-03     12.7127E-03
            5660               1     180.530E-03     176.758E-03     26.8564E-03     26.4921E-03
            5661               1     173.185E-03     170.585E-03     33.3115E-03     33.5284E-03
            5662               1     164.242E-03     161.421E-03     42.5494E-03     42.3522E-03
            5663               1     148.182E-03     146.462E-03     43.7241E-03     43.9651E-03
            5664               1     135.116E-03     133.612E-03     48.0290E-03     48.1449E-03
            5665               1     118.438E-03     117.201E-03     48.0642E-03     48.0287E-03
            5666               1     106.449E-03     105.677E-03     49.4020E-03     49.5573E-03
            5667               1     94.8697E-03     93.9912E-03     49.3035E-03     49.1670E-03
            5668               1     88.3242E-03     88.2383E-03     49.5853E-03     49.7389E-03
            5669               1     85.8411E-03     85.5552E-03     49.5310E-03     49.3398E-03
            5670               1     88.5126E-03     89.2127E-03     49.4768E-03     49.6423E-03
            5671               1     95.8906E-03     96.3927E-03     49.3784E-03     49.1403E-03
            5672               1     106.855E-03     108.115E-03     49.2007E-03     49.3588E-03
            5673               1     120.231E-03     121.631E-03     48.6782E-03     48.5113E-03
            5674               1     136.011E-03     137.487E-03     48.3853E-03     48.3894E-03
            5675               1     151.604E-03     154.053E-03     46.3828E-03     46.8042E-03
            5676               1     168.779E-03     170.320E-03     45.6057E-03     45.1341E-03
            5677               1     183.512E-03     186.235E-03     40.9235E-03     42.2833E-03
            5678               1     171.520E-03     166.911E-03     15.5283E-03     15.8530E-03
            5679               1     170.245E-03     167.943E-03     25.1603E-03     25.2221E-03
            5680               1     167.000E-03     163.809E-03     35.3112E-03     35.2275E-03
            5681               1     156.855E-03     155.240E-03     37.6134E-03     38.3353E-03
            5682               1     144.630E-03     143.543E-03     44.0761E-03     44.4306E-03
            5683               1     130.631E-03     129.690E-03     45.7895E-03     45.9953E-03
            5684               1     118.772E-03     118.143E-03     49.0960E-03     49.3323E-03
            5685               1     106.235E-03     105.467E-03     49.9014E-03     49.8474E-03
            5686               1     97.8417E-03     97.5752E-03     51.2755E-03     51.4241E-03
            5687               1     91.4898E-03     90.9642E-03     51.5677E-03     51.4035E-03
            5688               1     90.0226E-03     90.2420E-03     51.9475E-03     52.0572E-03
            5689               1     92.5298E-03     92.4533E-03     51.8335E-03     51.5906E-03
            5690               1     99.1652E-03     99.8429E-03     51.5894E-03     51.6651E-03
            5691               1     108.995E-03     109.498E-03     50.9089E-03     50.6184E-03
            5692               1     121.262E-03     122.262E-03     50.0870E-03     50.0741E-03
            5693               1     134.972E-03     136.185E-03     48.3071E-03     48.1806E-03
            5694               1     149.530E-03     151.040E-03     46.7313E-03     46.5338E-03
            5695               1     164.538E-03     166.436E-03     42.9432E-03     43.5707E-03
            5696               1     178.709E-03     180.386E-03     40.7385E-03     40.2714E-03
            5697               1     156.070E-03     155.194E-03     16.3381E-03     15.5415E-03
            5698               1     163.935E-03     158.981E-03     27.9261E-03     27.9431E-03
            5699               1     158.897E-03     157.707E-03     29.5049E-03     30.9856E-03
            5700               1     147.047E-03     146.895E-03     37.2919E-03     38.1340E-03
            5701               1     137.790E-03     137.339E-03     41.3341E-03     41.8024E-03
            5702               1     126.824E-03     126.667E-03     46.4470E-03     46.8539E-03
            5703               1     116.011E-03     115.546E-03     48.9258E-03     48.9915E-03
            5704               1     107.497E-03     107.309E-03     51.8071E-03     51.9894E-03
            5705               1     99.7039E-03     99.2293E-03     52.9964E-03     52.8932E-03
            5706               1     95.8956E-03     95.9000E-03     54.2798E-03     54.3734E-03
            5707               1     94.5352E-03     94.2147E-03     54.5488E-03     54.3521E-03
            5708               1     97.2524E-03     97.5198E-03     54.6863E-03     54.7296E-03
            5709               1     102.900E-03     102.829E-03     54.1041E-03     53.8193E-03
            5710               1     111.348E-03     111.792E-03     53.2182E-03     53.1889E-03
            5711               1     121.865E-03     122.080E-03     51.5728E-03     51.2262E-03
            5712               1     133.398E-03     134.131E-03     49.4936E-03     49.3694E-03
            5713               1     146.491E-03     147.011E-03     46.3380E-03     46.0966E-03
            5714               1     158.158E-03     159.852E-03     42.7971E-03     42.7072E-03
            5715               1     172.182E-03     173.449E-03     37.3768E-03     38.1312E-03
            5716               1     152.593E-03     142.350E-03     18.6842E-03     19.8704E-03
            5717               1     153.698E-03     154.588E-03     18.0008E-03     20.9181E-03
            5718               1     140.891E-03     142.645E-03     27.2901E-03     28.9556E-03
            5719               1     137.760E-03     138.266E-03     35.0481E-03     35.6619E-03
            5720               1     129.016E-03     129.643E-03     41.7245E-03     42.3313E-03
            5721               1     122.025E-03     121.981E-03     46.6209E-03     46.7613E-03
            5722               1     115.002E-03     115.064E-03     51.1444E-03     51.3646E-03
            5723               1     108.211E-03     107.942E-03     53.7867E-03     53.7514E-03
            5724               1     104.074E-03     104.057E-03     56.3449E-03     56.4341E-03
            5725               1     100.863E-03     100.580E-03     57.4098E-03     57.2892E-03
            5726               1     101.116E-03     101.197E-03     58.3543E-03     58.3923E-03
            5727               1     103.141E-03     102.905E-03     58.1720E-03     57.9805E-03
            5728               1     108.082E-03     108.208E-03     57.6983E-03     57.6862E-03
            5729               1     114.785E-03     114.527E-03     56.2843E-03     56.0000E-03
            5730               1     123.004E-03     123.085E-03     54.2963E-03     54.2158E-03
            5731               1     132.726E-03     132.298E-03     51.4590E-03     51.0391E-03
            5732               1     141.890E-03     142.191E-03     47.5161E-03     47.4670E-03
            5733               1     153.280E-03     152.651E-03     43.0105E-03     42.4710E-03
            5734               1     160.714E-03     162.205E-03     36.4566E-03     36.9189E-03
            5735               1     133.384E-03     147.077E-03     361.240E-06     5.31553E-03
            5736               1     123.422E-03     129.417E-03     12.1646E-03     14.0890E-03
            5737               1     127.743E-03     130.071E-03     26.9384E-03     27.3163E-03
            5738               1     124.450E-03     126.006E-03     35.4157E-03     35.9197E-03
            5739               1     122.686E-03     123.080E-03     43.4298E-03     43.5129E-03
            5740               1     119.182E-03     119.498E-03     49.7072E-03     49.8606E-03
            5741               1     115.261E-03     115.209E-03     54.1933E-03     54.1973E-03
            5742               1     112.660E-03     112.685E-03     58.2528E-03     58.3042E-03
            5743               1     109.633E-03     109.524E-03     60.4262E-03     60.3917E-03
            5744               1     109.257E-03     109.272E-03     62.4976E-03     62.5177E-03
            5745               1     109.143E-03     109.040E-03     62.9800E-03     62.9198E-03
            5746               1     111.767E-03     111.782E-03     63.3130E-03     63.3148E-03
            5747               1     115.098E-03     114.893E-03     62.3268E-03     62.2342E-03
            5748               1     120.350E-03     120.235E-03     60.9477E-03     60.9245E-03
            5749               1     126.371E-03     125.810E-03     58.4284E-03     58.2743E-03
            5750               1     132.857E-03     132.423E-03     55.0174E-03     54.9899E-03
            5751               1     140.346E-03     138.993E-03     50.7739E-03     50.4711E-03
            5752               1     146.070E-03     145.287E-03     44.5210E-03     44.6722E-03
            5753               1     154.004E-03     151.629E-03     38.4131E-03     37.8594E-03
            5754               1     243.758E-03     245.953E-03     42.6692E-03     41.6408E-03
            5755               1     169.205E-03     168.412E-03     52.4424E-03     51.0608E-03
            5756               1     138.453E-03     137.067E-03     41.0655E-03     41.1892E-03
            5757               1     119.967E-03     118.069E-03     42.8911E-03     42.4129E-03
            5758               1     103.444E-03     101.526E-03     38.8552E-03     38.9145E-03
            5759               1     92.5074E-03     90.5615E-03     39.2298E-03     39.0591E-03
            5760               1     81.2919E-03     79.6117E-03     37.1548E-03     37.1910E-03
            5761               1     73.8549E-03     72.4086E-03     37.1131E-03     37.0522E-03
            5762               1     66.6681E-03     65.7417E-03     35.9154E-03     35.9543E-03
            5763               1     63.3322E-03     62.8312E-03     35.9660E-03     35.9391E-03
            5764               1     61.3337E-03     61.5358E-03     35.4075E-03     35.4641E-03
            5765               1     63.4421E-03     64.0512E-03     35.8268E-03     35.8023E-03
            5766               1     67.1146E-03     68.3247E-03     35.8258E-03     35.9278E-03
            5767               1     74.1265E-03     75.4780E-03     36.7933E-03     36.7387E-03
            5768               1     81.9707E-03     83.6863E-03     37.2356E-03     37.4391E-03
            5769               1     92.3753E-03     93.9591E-03     38.9992E-03     38.8066E-03
            5770               1     103.058E-03     104.909E-03     39.6244E-03     40.0375E-03
            5771               1     116.674E-03     118.247E-03     42.9203E-03     42.1945E-03
            5772               1     130.907E-03     133.179E-03     43.0729E-03     43.8269E-03
            5773               1     197.863E-03     192.410E-03     13.7831E-03     13.8406E-03
            5774               1     186.358E-03     183.222E-03     46.5445E-03     45.5473E-03
            5775               1     143.312E-03     141.177E-03     47.2700E-03     46.1429E-03
            5776               1     127.479E-03     125.441E-03     44.7854E-03     44.6443E-03
            5777               1     110.863E-03     108.843E-03     44.8441E-03     44.3189E-03
            5778               1     98.7831E-03     97.1598E-03     42.5259E-03     42.5287E-03
            5779               1     88.8253E-03     87.2263E-03     42.2344E-03     42.0233E-03
            5780               1     80.0017E-03     78.9462E-03     40.6775E-03     40.7383E-03
            5781               1     74.2276E-03     73.3165E-03     40.4785E-03     40.3913E-03
            5782               1     69.5843E-03     69.3849E-03     39.5795E-03     39.6845E-03
            5783               1     68.8346E-03     68.8232E-03     39.7369E-03     39.6821E-03
            5784               1     69.6245E-03     70.4341E-03     39.4179E-03     39.5962E-03
            5785               1     74.2810E-03     75.0782E-03     40.0907E-03     40.0148E-03
            5786               1     80.0662E-03     81.6739E-03     40.2638E-03     40.5877E-03
            5787               1     88.8528E-03     90.0919E-03     41.6168E-03     41.4193E-03
            5788               1     98.2793E-03     100.316E-03     42.1296E-03     42.6969E-03
            5789               1     109.956E-03     111.275E-03     44.4461E-03     43.8068E-03
            5790               1     123.283E-03     125.235E-03     45.0618E-03     45.8412E-03
            5791               1     137.721E-03     138.804E-03     48.6055E-03     46.7511E-03
            5792               1     166.792E-03     166.084E-03     13.6731E-03     12.9834E-03
            5793               1     159.806E-03     156.876E-03     28.5297E-03     28.4889E-03
            5794               1     151.787E-03     148.658E-03     45.3215E-03     44.6882E-03
            5795               1     127.420E-03     125.351E-03     46.0171E-03     45.3244E-03
            5796               1     117.343E-03     115.425E-03     46.5918E-03     46.4426E-03
            5797               1     103.776E-03     102.091E-03     46.1112E-03     45.7449E-03
            5798               1     94.4852E-03     93.3003E-03     44.9546E-03     44.9782E-03
            5799               1     86.0567E-03     84.9154E-03     44.4382E-03     44.2739E-03
            5800               1     79.5217E-03     79.0302E-03     43.4176E-03     43.5180E-03
            5801               1     75.8712E-03     75.4170E-03     43.2453E-03     43.1561E-03
            5802               1     73.9518E-03     74.2969E-03     42.6913E-03     42.8600E-03
            5803               1     75.7967E-03     76.0877E-03     42.9930E-03     42.9081E-03
            5804               1     79.2066E-03     80.3857E-03     42.9253E-03     43.2112E-03
            5805               1     85.9007E-03     86.7921E-03     43.7638E-03     43.6211E-03
            5806               1     93.7256E-03     95.4608E-03     44.1134E-03     44.5811E-03
            5807               1     103.559E-03     104.873E-03     45.4682E-03     45.1455E-03
            5808               1     115.212E-03     116.858E-03     46.0956E-03     46.6770E-03
            5809               1     126.624E-03     128.314E-03     47.3417E-03     46.6952E-03
            5810               1     144.257E-03     144.010E-03     48.1540E-03     47.9344E-03
            5811               1     151.772E-03     148.209E-03     11.5677E-03     11.0788E-03
            5812               1     146.093E-03     143.769E-03     28.4019E-03     27.7338E-03
            5813               1     136.969E-03     134.888E-03     36.6035E-03     36.4437E-03
            5814               1     131.984E-03     129.442E-03     46.0333E-03     45.6341E-03
            5815               1     116.460E-03     114.848E-03     46.5366E-03     46.2003E-03
            5816               1     108.742E-03     107.312E-03     47.7107E-03     47.6445E-03
            5817               1     97.8361E-03     96.6402E-03     47.1203E-03     46.9213E-03
            5818               1     90.5439E-03     89.8548E-03     46.6130E-03     46.6839E-03
            5819               1     84.1540E-03     83.4489E-03     46.1712E-03     46.0524E-03
            5820               1     80.0835E-03     80.0516E-03     45.6102E-03     45.7432E-03
            5821               1     78.9351E-03     78.8094E-03     45.5653E-03     45.4663E-03
            5822               1     79.8089E-03     80.4872E-03     45.3239E-03     45.5311E-03
            5823               1     83.9669E-03     84.4387E-03     45.6972E-03     45.5765E-03
            5824               1     89.7425E-03     91.0070E-03     45.8225E-03     46.1397E-03
            5825               1     97.7115E-03     98.7826E-03     46.4846E-03     46.3269E-03
            5826               1     107.444E-03     108.838E-03     46.9067E-03     47.2861E-03
            5827               1     117.096E-03     118.928E-03     47.1747E-03     47.0906E-03
            5828               1     130.446E-03     130.880E-03     47.5531E-03     47.5464E-03
            5829               1     139.859E-03     142.190E-03     44.3818E-03     45.3341E-03
            5830               1     134.391E-03     132.579E-03     12.6278E-03     12.1804E-03
            5831               1     133.499E-03     131.013E-03     24.8858E-03     24.5901E-03
            5832               1     131.778E-03     129.279E-03     37.2290E-03     36.7862E-03
            5833               1     123.721E-03     122.231E-03     41.5794E-03     41.5365E-03
            5834               1     119.327E-03     117.614E-03     47.1821E-03     47.0290E-03
            5835               1     107.902E-03     106.830E-03     47.3499E-03     47.2441E-03
            5836               1     101.241E-03     100.432E-03     48.4199E-03     48.4680E-03
            5837               1     92.7966E-03     92.0436E-03     48.0164E-03     47.9067E-03
            5838               1     87.5161E-03     87.2601E-03     47.9149E-03     48.0193E-03
            5839               1     83.6222E-03     83.2392E-03     47.6785E-03     47.5706E-03
            5840               1     82.2294E-03     82.4959E-03     47.4656E-03     47.6058E-03
            5841               1     83.5937E-03     83.6617E-03     47.5013E-03     47.3762E-03
            5842               1     87.0247E-03     87.7929E-03     47.4485E-03     47.6398E-03
            5843               1     92.8497E-03     93.4641E-03     47.6412E-03     47.5051E-03
            5844               1     100.460E-03     101.510E-03     47.7646E-03     47.9841E-03
            5845               1     108.738E-03     110.149E-03     47.6119E-03     47.6133E-03
            5846               1     119.364E-03     120.165E-03     47.6862E-03     47.7362E-03
            5847               1     127.749E-03     130.130E-03     45.5509E-03     46.2478E-03
            5848               1     137.937E-03     138.702E-03     43.9689E-03     43.5423E-03
            5849               1     121.672E-03     118.999E-03     13.3322E-03     12.6063E-03
            5850               1     123.126E-03     120.583E-03     26.4623E-03     26.1117E-03
            5851               1     122.790E-03     121.261E-03     34.0950E-03     34.1799E-03
            5852               1     121.861E-03     120.067E-03     42.3554E-03     42.1891E-03
            5853               1     114.283E-03     113.454E-03     44.4157E-03     44.5779E-03
            5854               1     109.291E-03     108.498E-03     47.8932E-03     47.9648E-03
            5855               1     100.466E-03     99.8667E-03     48.1353E-03     48.1165E-03
            5856               1     95.0786E-03     94.7618E-03     49.1249E-03     49.2272E-03
            5857               1     89.2594E-03     88.8212E-03     49.0258E-03     48.9375E-03
            5858               1     86.3441E-03     86.3682E-03     49.2039E-03     49.3053E-03
            5859               1     85.0991E-03     84.9023E-03     49.1179E-03     48.9930E-03
            5860               1     86.2841E-03     86.6451E-03     49.0817E-03     49.1891E-03
            5861               1     89.6649E-03     89.8232E-03     48.9925E-03     48.8402E-03
            5862               1     94.9975E-03     95.6162E-03     48.8888E-03     48.9881E-03
            5863               1     101.608E-03     102.348E-03     48.4955E-03     48.4058E-03
            5864               1     109.976E-03     110.672E-03     48.2306E-03     48.2342E-03
            5865               1     117.719E-03     119.401E-03     46.6435E-03     46.9906E-03
            5866               1     126.820E-03     127.598E-03     45.5947E-03     45.3568E-03
            5867               1     133.462E-03     135.487E-03     41.5326E-03     42.5351E-03
            5868               1     108.475E-03     105.522E-03     14.7362E-03     14.8981E-03
            5869               1     113.351E-03     111.896E-03     25.8086E-03     25.7245E-03
            5870               1     117.496E-03     115.481E-03     35.5696E-03     35.4707E-03
            5871               1     115.381E-03     114.801E-03     39.2974E-03     39.7951E-03
            5872               1     112.262E-03     111.793E-03     44.5682E-03     44.7845E-03
            5873               1     105.596E-03     105.302E-03     46.1738E-03     46.3252E-03
            5874               1     101.017E-03     100.831E-03     48.7008E-03     48.8501E-03
            5875               1     94.7420E-03     94.4362E-03     49.2437E-03     49.2147E-03
            5876               1     91.3210E-03     91.2882E-03     50.2547E-03     50.3498E-03
            5877               1     88.2534E-03     87.9846E-03     50.3762E-03     50.2714E-03
            5878               1     87.7886E-03     87.9157E-03     50.6711E-03     50.7390E-03
            5879               1     88.8065E-03     88.6705E-03     50.5315E-03     50.3787E-03
            5880               1     91.9410E-03     92.2013E-03     50.4109E-03     50.4474E-03
            5881               1     96.4694E-03     96.6095E-03     49.8916E-03     49.7227E-03
            5882               1     102.605E-03     102.938E-03     49.3665E-03     49.3246E-03
            5883               1     109.154E-03     109.838E-03     48.0270E-03     48.0017E-03
            5884               1     116.630E-03     117.193E-03     46.8200E-03     46.6451E-03
            5885               1     123.365E-03     124.812E-03     43.8652E-03     44.3659E-03
            5886               1     129.697E-03     130.679E-03     41.4672E-03     41.2839E-03
            5887               1     93.8580E-03     93.0819E-03     15.8051E-03     15.0299E-03
            5888               1     106.633E-03     103.483E-03     28.0468E-03     28.0522E-03
            5889               1     110.129E-03     110.103E-03     32.6682E-03     33.7261E-03
            5890               1     109.335E-03     109.605E-03     39.0370E-03     39.5721E-03
            5891               1     106.585E-03     106.743E-03     42.3856E-03     42.7304E-03
            5892               1     103.512E-03     103.687E-03     46.3798E-03     46.6321E-03
            5893               1     98.6564E-03     98.6245E-03     48.1315E-03     48.1888E-03
            5894               1     95.7964E-03     95.8652E-03     50.3333E-03     50.4463E-03
            5895               1     92.2175E-03     92.0493E-03     51.0806E-03     51.0182E-03
            5896               1     91.0867E-03     91.1511E-03     52.0729E-03     52.1299E-03
            5897               1     90.4038E-03     90.1927E-03     52.1773E-03     52.0537E-03
            5898               1     91.8708E-03     91.9401E-03     52.3476E-03     52.3653E-03
            5899               1     94.2640E-03     94.0801E-03     51.8683E-03     51.6977E-03
            5900               1     98.2798E-03     98.2968E-03     51.3274E-03     51.2754E-03
            5901               1     102.965E-03     102.913E-03     50.0810E-03     49.8972E-03
            5902               1     108.543E-03     108.565E-03     48.6885E-03     48.5246E-03
            5903               1     114.292E-03     114.527E-03     46.2895E-03     46.2127E-03
            5904               1     119.532E-03     120.070E-03     43.7060E-03     43.5048E-03
            5905               1     124.617E-03     125.730E-03     39.5322E-03     40.0919E-03
            5906               1     85.6896E-03     79.2168E-03     17.7040E-03     18.6645E-03
            5907               1     96.1352E-03     98.0304E-03     23.7095E-03     25.8439E-03
            5908               1     98.9949E-03     100.784E-03     31.2861E-03     32.3931E-03
            5909               1     101.616E-03     102.500E-03     36.9956E-03     37.4584E-03
            5910               1     101.264E-03     102.026E-03     42.3484E-03     42.7288E-03
            5911               1     99.5452E-03     99.8595E-03     45.8019E-03     45.9148E-03
            5912               1     98.3764E-03     98.6594E-03     49.3624E-03     49.4963E-03
            5913               1     95.8482E-03     95.8793E-03     51.1649E-03     51.1488E-03
            5914               1     95.1926E-03     95.3099E-03     53.1716E-03     53.2255E-03
            5915               1     93.9263E-03     93.8093E-03     53.8437E-03     53.7683E-03
            5916               1     94.6481E-03     94.6801E-03     54.6308E-03     54.6502E-03
            5917               1     95.4321E-03     95.2070E-03     54.4212E-03     54.3036E-03
            5918               1     97.8279E-03     97.7328E-03     54.1768E-03     54.1519E-03
            5919               1     100.510E-03     100.169E-03     53.0802E-03     52.9176E-03
            5920               1     104.171E-03     103.878E-03     51.7604E-03     51.6565E-03
            5921               1     108.042E-03     107.538E-03     49.5931E-03     49.3706E-03
            5922               1     111.788E-03     111.426E-03     46.9021E-03     46.7350E-03
            5923               1     115.852E-03     115.203E-03     43.4208E-03     43.1450E-03
            5924               1     117.661E-03     117.902E-03     38.8864E-03     38.8853E-03
            5925               1     62.2405E-03     73.6994E-03     8.82285E-03     12.5806E-03
            5926               1     77.2328E-03     82.0092E-03     20.2202E-03     21.4834E-03
            5927               1     88.0958E-03     90.1613E-03     29.7638E-03     30.0909E-03
            5928               1     93.2088E-03     94.5852E-03     36.9107E-03     37.2183E-03
            5929               1     96.1749E-03     96.8146E-03     42.5148E-03     42.5932E-03
            5930               1     98.2425E-03     98.7300E-03     47.6117E-03     47.7003E-03
            5931               1     98.1756E-03     98.4123E-03     50.7856E-03     50.7961E-03
            5932               1     99.1664E-03     99.3692E-03     54.0248E-03     54.0538E-03
            5933               1     98.5070E-03     98.5696E-03     55.5240E-03     55.5042E-03
            5934               1     99.5192E-03     99.5823E-03     57.1912E-03     57.2020E-03
            5935               1     99.5693E-03     99.4927E-03     57.4655E-03     57.4287E-03
            5936               1     101.204E-03     101.124E-03     57.8157E-03     57.8123E-03
            5937               1     102.350E-03     102.091E-03     57.0266E-03     56.9729E-03
            5938               1     104.605E-03     104.309E-03     56.1168E-03     56.0873E-03
            5939               1     106.550E-03     105.988E-03     54.1899E-03     54.1073E-03
            5940               1     108.773E-03     108.133E-03     51.8138E-03     51.7532E-03
            5941               1     110.784E-03     109.649E-03     48.5440E-03     48.3844E-03
            5942               1     111.648E-03     110.560E-03     44.2009E-03     44.1767E-03
            5943               1     112.589E-03     110.591E-03     39.3451E-03     39.0529E-03
            5944               1     171.402E-03     171.021E-03     34.2195E-03     34.4584E-03
            5945               1     119.126E-03     117.887E-03     44.1133E-03     43.4426E-03
            5946               1     97.7096E-03     96.6060E-03     37.8966E-03     38.0662E-03
            5947               1     89.4159E-03     88.1106E-03     40.9637E-03     40.7014E-03
            5948               1     81.2378E-03     80.2273E-03     39.5054E-03     39.5651E-03
            5949               1     78.7826E-03     77.7928E-03     41.0954E-03     40.9893E-03
            5950               1     75.0468E-03     74.3616E-03     40.6034E-03     40.6328E-03
            5951               1     74.2191E-03     73.6347E-03     41.4443E-03     41.4010E-03
            5952               1     72.3784E-03     72.0781E-03     41.1634E-03     41.1896E-03
            5953               1     72.3988E-03     72.2118E-03     41.6493E-03     41.6287E-03
            5954               1     71.7722E-03     71.8646E-03     41.4376E-03     41.4744E-03
            5955               1     72.6777E-03     72.8471E-03     41.8219E-03     41.8005E-03
            5956               1     73.0980E-03     73.5706E-03     41.6338E-03     41.6999E-03
            5957               1     75.0646E-03     75.5128E-03     42.0726E-03     42.0198E-03
            5958               1     76.4590E-03     77.2851E-03     41.8083E-03     41.9378E-03
            5959               1     79.8116E-03     80.4100E-03     42.4622E-03     42.2931E-03
            5960               1     82.3211E-03     83.5071E-03     41.9095E-03     42.1683E-03
            5961               1     88.1088E-03     88.7235E-03     43.2414E-03     42.6822E-03
            5962               1     92.8521E-03     94.6781E-03     41.9354E-03     42.4174E-03
            5963               1     131.577E-03     129.770E-03     14.5901E-03     14.9702E-03
            5964               1     127.251E-03     125.312E-03     40.5043E-03     40.3014E-03
            5965               1     101.176E-03     99.7776E-03     42.7679E-03     42.2789E-03
            5966               1     93.0931E-03     91.9603E-03     42.4735E-03     42.4692E-03
            5967               1     86.9281E-03     85.7681E-03     43.8533E-03     43.5692E-03
            5968               1     82.4132E-03     81.6972E-03     43.2548E-03     43.2811E-03
            5969               1     80.3217E-03     79.5666E-03     43.9921E-03     43.8555E-03
            5970               1     77.7700E-03     77.4106E-03     43.5454E-03     43.5892E-03
            5971               1     77.0629E-03     76.6929E-03     43.9467E-03     43.8840E-03
            5972               1     75.7923E-03     75.7829E-03     43.6198E-03     43.6862E-03
            5973               1     76.1079E-03     76.0632E-03     43.9405E-03     43.8990E-03
            5974               1     75.9677E-03     76.3295E-03     43.7134E-03     43.8267E-03
            5975               1     77.3942E-03     77.5929E-03     44.1217E-03     44.0525E-03
            5976               1     78.3186E-03     79.0777E-03     43.9274E-03     44.1329E-03
            5977               1     81.0141E-03     81.3155E-03     44.5490E-03     44.3590E-03
            5978               1     83.0355E-03     84.1828E-03     44.2364E-03     44.5899E-03
            5979               1     87.3736E-03     87.5337E-03     45.2388E-03     44.6905E-03
            5980               1     91.3489E-03     92.6717E-03     44.6065E-03     45.0877E-03
            5981               1     98.1503E-03     97.8558E-03     46.1015E-03     44.7027E-03
            5982               1     106.734E-03     106.067E-03     14.1109E-03     13.3451E-03
            5983               1     103.828E-03     102.758E-03     27.7991E-03     27.9003E-03
            5984               1     104.133E-03     102.477E-03     41.6155E-03     41.3713E-03
            5985               1     92.7846E-03     91.6058E-03     43.6597E-03     43.3214E-03
            5986               1     90.2392E-03     89.3613E-03     45.2504E-03     45.2107E-03
            5987               1     86.2530E-03     85.3746E-03     45.9702E-03     45.7466E-03
            5988               1     83.7751E-03     83.3381E-03     45.8902E-03     45.9204E-03
            5989               1     82.0073E-03     81.4973E-03     46.1285E-03     46.0152E-03
            5990               1     80.2817E-03     80.1682E-03     45.7901E-03     45.8547E-03
            5991               1     79.7690E-03     79.5669E-03     45.9349E-03     45.8731E-03
            5992               1     79.0833E-03     79.2869E-03     45.6585E-03     45.7652E-03
            5993               1     79.7840E-03     79.8167E-03     45.9105E-03     45.8464E-03
            5994               1     80.2471E-03     80.8021E-03     45.7432E-03     45.9275E-03
            5995               1     82.1848E-03     82.3646E-03     46.1842E-03     46.0538E-03
            5996               1     83.7928E-03     84.6952E-03     46.0318E-03     46.3354E-03
            5997               1     86.8929E-03     87.1076E-03     46.6238E-03     46.3158E-03
            5998               1     89.9420E-03     90.9345E-03     46.2830E-03     46.6650E-03
            5999               1     93.8787E-03     94.1288E-03     46.5193E-03     45.9496E-03
            6000               1     100.374E-03     100.191E-03     45.8163E-03     45.7356E-03
            6001               1     91.6236E-03     90.0434E-03     11.9502E-03     11.8479E-03
            6002               1     92.1615E-03     90.6700E-03     27.1749E-03     26.5346E-03
            6003               1     90.9470E-03     90.0417E-03     35.4434E-03     35.3900E-03
            6004               1     94.1990E-03     92.9796E-03     43.7649E-03     43.5512E-03
            6005               1     89.5454E-03     88.6990E-03     45.5423E-03     45.3303E-03
            6006               1     89.1086E-03     88.5390E-03     47.2941E-03     47.2730E-03
            6007               1     86.3905E-03     85.8218E-03     47.5990E-03     47.4580E-03
            6008               1     84.8995E-03     84.6932E-03     47.6914E-03     47.7372E-03
            6009               1     83.4531E-03     83.1522E-03     47.6610E-03     47.5818E-03
            6010               1     82.3916E-03     82.4519E-03     47.4349E-03     47.5169E-03
            6011               1     82.2275E-03     82.1374E-03     47.4733E-03     47.4117E-03
            6012               1     82.2058E-03     82.5397E-03     47.3034E-03     47.4372E-03
            6013               1     83.3311E-03     83.4083E-03     47.5184E-03     47.4336E-03
            6014               1     84.4957E-03     85.1114E-03     47.4353E-03     47.6495E-03
            6015               1     86.6605E-03     86.9023E-03     47.7269E-03     47.5875E-03
            6016               1     88.9917E-03     89.7325E-03     47.5502E-03     47.8233E-03
            6017               1     91.4586E-03     92.0172E-03     47.3548E-03     47.2200E-03
            6018               1     95.1419E-03     95.3291E-03     46.6133E-03     46.6731E-03
            6019               1     96.2622E-03     97.6717E-03     43.6154E-03     44.2427E-03
            6020               1     76.3595E-03     75.3227E-03     12.5740E-03     11.7656E-03
            6021               1     80.2965E-03     79.1200E-03     24.2276E-03     24.1286E-03
            6022               1     86.1522E-03     84.8231E-03     35.5597E-03     35.1330E-03
            6023               1     87.2697E-03     86.5470E-03     40.8775E-03     40.7843E-03
            6024               1     90.9549E-03     90.2313E-03     46.1931E-03     46.0944E-03
            6025               1     88.6998E-03     88.1822E-03     47.3543E-03     47.2395E-03
            6026               1     88.6567E-03     88.3798E-03     48.6944E-03     48.7178E-03
            6027               1     86.5724E-03     86.2541E-03     48.7120E-03     48.6345E-03
            6028               1     85.5989E-03     85.5620E-03     48.8301E-03     48.8888E-03
            6029               1     84.5780E-03     84.4152E-03     48.7036E-03     48.6436E-03
            6030               1     84.1689E-03     84.3272E-03     48.5939E-03     48.6808E-03
            6031               1     84.4509E-03     84.4242E-03     48.5932E-03     48.5268E-03
            6032               1     85.1327E-03     85.4913E-03     48.5266E-03     48.6580E-03
            6033               1     86.5268E-03     86.6736E-03     48.6021E-03     48.5255E-03
            6034               1     88.3001E-03     88.8022E-03     48.5127E-03     48.6880E-03
            6035               1     90.0577E-03     90.5705E-03     48.2305E-03     48.2301E-03
            6036               1     92.4977E-03     92.8531E-03     47.6733E-03     47.7868E-03
            6037               1     93.0836E-03     94.3413E-03     45.6963E-03     46.1354E-03
            6038               1     94.0209E-03     94.2482E-03     43.1263E-03     42.9564E-03
            6039               1     64.4962E-03     63.0834E-03     12.3097E-03     12.1573E-03
            6040               1     71.2724E-03     69.9339E-03     25.0401E-03     24.3929E-03
            6041               1     78.5278E-03     77.7196E-03     33.5479E-03     33.5063E-03
            6042               1     86.0169E-03     85.2176E-03     41.5152E-03     41.3221E-03
            6043               1     87.3752E-03     86.9891E-03     44.6805E-03     44.6538E-03
            6044               1     89.9761E-03     89.6709E-03     48.0078E-03     48.0151E-03
            6045               1     88.2586E-03     88.0338E-03     48.5506E-03     48.5172E-03
            6046               1     88.0822E-03     88.0054E-03     49.4600E-03     49.5049E-03
            6047               1     86.5036E-03     86.3467E-03     49.3610E-03     49.3171E-03
            6048               1     86.0058E-03     86.0577E-03     49.5027E-03     49.5572E-03
            6049               1     85.5129E-03     85.4213E-03     49.3679E-03     49.3119E-03
            6050               1     85.7702E-03     85.9342E-03     49.3539E-03     49.4221E-03
            6051               1     86.4287E-03     86.4467E-03     49.2639E-03     49.2017E-03
            6052               1     87.6967E-03     87.9529E-03     49.2111E-03     49.2944E-03
            6053               1     88.9785E-03     89.2687E-03     48.9099E-03     48.9066E-03
            6054               1     90.8803E-03     91.1462E-03     48.5721E-03     48.6393E-03
            6055               1     91.4915E-03     92.4094E-03     47.2536E-03     47.5484E-03
            6056               1     92.4086E-03     92.6391E-03     45.6623E-03     45.6295E-03
            6057               1     90.8822E-03     92.0747E-03     42.1049E-03     42.7460E-03
            6058               1     52.1323E-03     50.7989E-03     13.4818E-03     12.6384E-03
            6059               1     63.4627E-03     62.3874E-03     24.7757E-03     24.7376E-03
            6060               1     75.0676E-03     74.3132E-03     34.7450E-03     34.4949E-03
            6061               1     81.7133E-03     81.3599E-03     40.1793E-03     40.2175E-03
            6062               1     87.3690E-03     87.1608E-03     45.2635E-03     45.3022E-03
            6063               1     87.6587E-03     87.6244E-03     46.8620E-03     46.9161E-03
            6064               1     88.9223E-03     88.8838E-03     48.8956E-03     48.9477E-03
            6065               1     87.4974E-03     87.4404E-03     49.1506E-03     49.1481E-03
            6066               1     87.3610E-03     87.3858E-03     49.8114E-03     49.8525E-03
            6067               1     86.3845E-03     86.2968E-03     49.7245E-03     49.6849E-03
            6068               1     86.4310E-03     86.4893E-03     49.8965E-03     49.9295E-03
            6069               1     86.4371E-03     86.3645E-03     49.7321E-03     49.6729E-03
            6070               1     87.2425E-03     87.3163E-03     49.7238E-03     49.7468E-03
            6071               1     88.0255E-03     88.0742E-03     49.3984E-03     49.3561E-03
            6072               1     89.4920E-03     89.5579E-03     49.1682E-03     49.1674E-03
            6073               1     90.2198E-03     90.6317E-03     48.2594E-03     48.3574E-03
            6074               1     91.3250E-03     91.4667E-03     47.3269E-03     47.3013E-03
            6075               1     90.4049E-03     91.3964E-03     44.9701E-03     45.4222E-03
            6076               1     88.7264E-03     89.1312E-03     42.0600E-03     42.0668E-03
            6077               1     41.5555E-03     40.3341E-03     13.8520E-03     14.0641E-03
            6078               1     58.1376E-03     57.3640E-03     26.6150E-03     26.2255E-03
            6079               1     71.2087E-03     70.7746E-03     34.5492E-03     34.6549E-03
            6080               1     80.7892E-03     80.8653E-03     41.1233E-03     41.2913E-03
            6081               1     84.2220E-03     84.4685E-03     43.8603E-03     44.0455E-03
            6082               1     87.2314E-03     87.3313E-03     46.9357E-03     47.0235E-03
            6083               1     86.9668E-03     87.1038E-03     47.8814E-03     47.9501E-03
            6084               1     87.6563E-03     87.7287E-03     49.2762E-03     49.3193E-03
            6085               1     86.7693E-03     86.7661E-03     49.5041E-03     49.4956E-03
            6086               1     86.9741E-03     87.0121E-03     50.0628E-03     50.0827E-03
            6087               1     86.5942E-03     86.5104E-03     49.9881E-03     49.9406E-03
            6088               1     87.1195E-03     87.1048E-03     50.1290E-03     50.1250E-03
            6089               1     87.3980E-03     87.3040E-03     49.8141E-03     49.7545E-03
            6090               1     88.4148E-03     88.3162E-03     49.6455E-03     49.6004E-03
            6091               1     88.9532E-03     88.9740E-03     48.9132E-03     48.8912E-03
            6092               1     89.9945E-03     89.8485E-03     48.2681E-03     48.1699E-03
            6093               1     89.8189E-03     90.1430E-03     46.6917E-03     46.8105E-03
            6094               1     89.3448E-03     89.5110E-03     45.0035E-03     44.9444E-03
            6095               1     86.3030E-03     87.2506E-03     41.6754E-03     42.2229E-03
            6096               1     32.4151E-03     31.3033E-03     15.6154E-03     14.7983E-03
            6097               1     54.6703E-03     54.0186E-03     27.6405E-03     27.8298E-03
            6098               1     70.1913E-03     70.9777E-03     36.1932E-03     36.7347E-03
            6099               1     77.5084E-03     78.1810E-03     39.9045E-03     40.2768E-03
            6100               1     82.4750E-03     82.8540E-03     43.7226E-03     43.8928E-03
            6101               1     84.3165E-03     84.7115E-03     45.5744E-03     45.7277E-03
            6102               1     86.2183E-03     86.4101E-03     47.7487E-03     47.8066E-03
            6103               1     86.2240E-03     86.3656E-03     48.5928E-03     48.6241E-03
            6104               1     87.0479E-03     87.1342E-03     49.7330E-03     49.7529E-03
            6105               1     86.7861E-03     86.7646E-03     49.9803E-03     49.9535E-03
            6106               1     87.3827E-03     87.3703E-03     50.4438E-03     50.4384E-03
            6107               1     87.3649E-03     87.2408E-03     50.2649E-03     50.2108E-03
            6108               1     88.0615E-03     87.9171E-03     50.2278E-03     50.1825E-03
            6109               1     88.2308E-03     88.0569E-03     49.5990E-03     49.5377E-03
            6110               1     88.9127E-03     88.6035E-03     49.0496E-03     48.9373E-03
            6111               1     88.8175E-03     88.6467E-03     47.8005E-03     47.7474E-03
            6112               1     88.7406E-03     88.3962E-03     46.5261E-03     46.3607E-03
            6113               1     87.3529E-03     87.2637E-03     44.3537E-03     44.3306E-03
            6114               1     84.5358E-03     84.8902E-03     41.8255E-03     41.8509E-03
            6115               1     29.2975E-03     30.5403E-03     16.7732E-03     17.6264E-03
            6116               1     54.6183E-03     56.9832E-03     30.1288E-03     31.4561E-03
            6117               1     66.7673E-03     68.2094E-03     35.0257E-03     35.6983E-03
            6118               1     73.9251E-03     74.6922E-03     39.2937E-03     39.5522E-03
            6119               1     78.8181E-03     79.5027E-03     42.2956E-03     42.5237E-03
            6120               1     82.4435E-03     82.7926E-03     45.2334E-03     45.3007E-03
            6121               1     84.2312E-03     84.5353E-03     46.9826E-03     47.0467E-03
            6122               1     86.2106E-03     86.3814E-03     48.8503E-03     48.8703E-03
            6123               1     86.7397E-03     86.8253E-03     49.6755E-03     49.6722E-03
            6124               1     87.8867E-03     87.9299E-03     50.6543E-03     50.6549E-03
            6125               1     87.9921E-03     87.9260E-03     50.7937E-03     50.7604E-03
            6126               1     88.7136E-03     88.6127E-03     51.0496E-03     51.0252E-03
            6127               1     88.6334E-03     88.4420E-03     50.5921E-03     50.5442E-03
            6128               1     89.0052E-03     88.7086E-03     50.1815E-03     50.1077E-03
            6129               1     88.5928E-03     88.2724E-03     49.0801E-03     49.0175E-03
            6130               1     88.2953E-03     87.7585E-03     47.9215E-03     47.7693E-03
            6131               1     87.0859E-03     86.5606E-03     46.0652E-03     45.9446E-03
            6132               1     85.1644E-03     84.5152E-03     43.9466E-03     43.7428E-03
            6133               1     82.1172E-03     81.2693E-03     41.2203E-03     40.9258E-03
            6134               1     38.2533E-03     38.8689E-03     18.3755E-03     20.9934E-03
            6135               1     51.1777E-03     52.8772E-03     28.8614E-03     29.5038E-03
            6136               1     60.1045E-03     61.1823E-03     33.0482E-03     33.3076E-03
            6137               1     69.5992E-03     70.3492E-03     37.9698E-03     38.1219E-03
            6138               1     75.8121E-03     76.2941E-03     41.7461E-03     41.8017E-03
            6139               1     80.3499E-03     80.7285E-03     44.7460E-03     44.7896E-03
            6140               1     84.1452E-03     84.4028E-03     47.4700E-03     47.4843E-03
            6141               1     86.1639E-03     86.3465E-03     49.1087E-03     49.1153E-03
            6142               1     88.3813E-03     88.4963E-03     50.7650E-03     50.7680E-03
            6143               1     89.1089E-03     89.1420E-03     51.4013E-03     51.3924E-03
            6144               1     90.3004E-03     90.2782E-03     52.1253E-03     52.1205E-03
            6145               1     90.3085E-03     90.1990E-03     51.9709E-03     51.9547E-03
            6146               1     90.7112E-03     90.5267E-03     51.8568E-03     51.8371E-03
            6147               1     90.0990E-03     89.8298E-03     50.9614E-03     50.9397E-03
            6148               1     89.5850E-03     89.1872E-03     49.9764E-03     49.9287E-03
            6149               1     88.0868E-03     87.5881E-03     48.2707E-03     48.2296E-03
            6150               1     86.0853E-03     85.3945E-03     46.2438E-03     46.1586E-03
            6151               1     83.1073E-03     82.1612E-03     43.6413E-03     43.5154E-03
            6152               1     78.2605E-03     77.2100E-03     40.2400E-03     40.1569E-03
            6153               1     76.5832E-03     74.9279E-03     26.5755E-03     27.4049E-03
            6154               1     73.3242E-03     72.1274E-03     40.9936E-03     40.6171E-03
            6155               1     71.7551E-03     71.4090E-03     40.7588E-03     40.8335E-03
            6156               1     77.3342E-03     76.9836E-03     44.3477E-03     44.3079E-03
            6157               1     74.9119E-03     74.6686E-03     42.9360E-03     42.9684E-03
            6158               1     75.9986E-03     75.7366E-03     43.6724E-03     43.6515E-03
            6159               1     74.7978E-03     74.6246E-03     43.0208E-03     43.0355E-03
            6160               1     75.1116E-03     74.9560E-03     43.2683E-03     43.2587E-03
            6161               1     74.6388E-03     74.5561E-03     43.0345E-03     43.0415E-03
            6162               1     74.7531E-03     74.7012E-03     43.1342E-03     43.1281E-03
            6163               1     74.5637E-03     74.5829E-03     43.0432E-03     43.0498E-03
            6164               1     74.6638E-03     74.7087E-03     43.1072E-03     43.0990E-03
            6165               1     74.5802E-03     74.7089E-03     43.0519E-03     43.0632E-03
            6166               1     74.7872E-03     74.9201E-03     43.1527E-03     43.1370E-03
            6167               1     74.7148E-03     74.9568E-03     43.0766E-03     43.0960E-03
            6168               1     75.2004E-03     75.4241E-03     43.3185E-03     43.2985E-03
            6169               1     74.9949E-03     75.3609E-03     43.1359E-03     43.1746E-03
            6170               1     76.0630E-03     76.1926E-03     43.7183E-03     43.5853E-03
            6171               1     74.1790E-03     75.3101E-03     42.4788E-03     42.9455E-03
            6172               1     43.2444E-03     42.8394E-03     19.2554E-03     18.5929E-03
            6173               1     74.6751E-03     74.2983E-03     41.7165E-03     41.7663E-03
            6174               1     79.5515E-03     79.4714E-03     45.7060E-03     45.7026E-03
            6175               1     77.1967E-03     77.0461E-03     44.1628E-03     44.1569E-03
            6176               1     76.8408E-03     76.7402E-03     44.1697E-03     44.1626E-03
            6177               1     75.8316E-03     75.7632E-03     43.5781E-03     43.5940E-03
            6178               1     75.9048E-03     75.8160E-03     43.7195E-03     43.7054E-03
            6179               1     75.5655E-03     75.5330E-03     43.5539E-03     43.5666E-03
            6180               1     75.6147E-03     75.5623E-03     43.6258E-03     43.6139E-03
            6181               1     75.4678E-03     75.4737E-03     43.5606E-03     43.5733E-03
            6182               1     75.5191E-03     75.4969E-03     43.6006E-03     43.5860E-03
            6183               1     75.4565E-03     75.5099E-03     43.5612E-03     43.5800E-03
            6184               1     75.5640E-03     75.5609E-03     43.6075E-03     43.5831E-03
            6185               1     75.5361E-03     75.6470E-03     43.5606E-03     43.5917E-03
            6186               1     75.7520E-03     75.7654E-03     43.6480E-03     43.6123E-03
            6187               1     75.7560E-03     75.9093E-03     43.5854E-03     43.6202E-03
            6188               1     76.2237E-03     76.2869E-03     43.8131E-03     43.7822E-03
            6189               1     76.4449E-03     76.7145E-03     43.8125E-03     43.9198E-03
            6190               1     77.8486E-03     77.4409E-03     44.6701E-03     44.2834E-03
            6191               1     33.7280E-03     32.8485E-03     19.3946E-03     18.7733E-03
            6192               1     69.3146E-03     69.8569E-03     39.7014E-03     39.9432E-03
            6193               1     79.8037E-03     79.9307E-03     45.3894E-03     45.4046E-03
            6194               1     76.7023E-03     76.7557E-03     44.0577E-03     44.0356E-03
            6195               1     77.1482E-03     77.2577E-03     44.2874E-03     44.2992E-03
            6196               1     76.1770E-03     76.2221E-03     43.8685E-03     43.8573E-03
            6197               1     76.4781E-03     76.5510E-03     44.0645E-03     44.0744E-03
            6198               1     76.2291E-03     76.2501E-03     43.9743E-03     43.9642E-03
            6199               1     76.3308E-03     76.3759E-03     44.0532E-03     44.0639E-03
            6200               1     76.2612E-03     76.2525E-03     44.0279E-03     44.0164E-03
            6201               1     76.2975E-03     76.3195E-03     44.0491E-03     44.0629E-03
            6202               1     76.3071E-03     76.2615E-03     44.0420E-03     44.0250E-03
            6203               1     76.3487E-03     76.3559E-03     44.0405E-03     44.0622E-03
            6204               1     76.3936E-03     76.3024E-03     44.0304E-03     44.0029E-03
            6205               1     76.4773E-03     76.4822E-03     44.0230E-03     44.0599E-03
            6206               1     76.5160E-03     76.3578E-03     43.9920E-03     43.9414E-03
            6207               1     76.8059E-03     76.7917E-03     44.0558E-03     44.1024E-03
            6208               1     76.7438E-03     76.7557E-03     43.9788E-03     44.0165E-03
            6209               1     78.4096E-03     77.4939E-03     44.6731E-03     44.3009E-03
            6210               1     53.0281E-03     52.1176E-03     23.0885E-03     24.1254E-03
            6211               1     66.4278E-03     66.1604E-03     38.2374E-03     37.9993E-03
            6212               1     69.2174E-03     69.7155E-03     39.7041E-03     39.7962E-03
            6213               1     77.3079E-03     77.5902E-03     44.3698E-03     44.3400E-03
            6214               1     75.5835E-03     75.8706E-03     43.5036E-03     43.5201E-03
            6215               1     77.4077E-03     77.6102E-03     44.5938E-03     44.5809E-03
            6216               1     76.5686E-03     76.7476E-03     44.1620E-03     44.1678E-03
            6217               1     77.1627E-03     77.2897E-03     44.5289E-03     44.5271E-03
            6218               1     76.8710E-03     76.9518E-03     44.3780E-03     44.3776E-03
            6219               1     77.0967E-03     77.1383E-03     44.5116E-03     44.5133E-03
            6220               1     77.0020E-03     76.9898E-03     44.4479E-03     44.4453E-03
            6221               1     77.1325E-03     77.0857E-03     44.5022E-03     44.5054E-03
            6222               1     77.0879E-03     76.9847E-03     44.4426E-03     44.4395E-03
            6223               1     77.2453E-03     77.1086E-03     44.4871E-03     44.4903E-03
            6224               1     77.1238E-03     76.9289E-03     44.3599E-03     44.3560E-03
            6225               1     77.4180E-03     77.1975E-03     44.4554E-03     44.4615E-03
            6226               1     76.9279E-03     76.6501E-03     44.0941E-03     44.0946E-03
            6227               1     77.5379E-03     77.0054E-03     44.3226E-03     44.2126E-03
            6228               1     74.5145E-03     74.9979E-03     42.5191E-03     42.9855E-03
            6509               1     935.560E-18     1.12718E-15     23.0913E-18    -23.0913E-18
            6510               1     2.03046E-15     2.17785E-15     336.350E-18     426.406E-18
            6511               1     793.056E-18     529.339E-18     457.579E-18     305.177E-18
            6512               1     1.02467E-15     992.711E-18     48.4917E-18    -48.4917E-18
            6513               1     1.98627E-15     1.99706E-15     1.14529E-15     1.14298E-15
            6514               1     1.89093E-15     2.61407E-15     922.459E-18     1.36581E-15
            6515               1     941.593E-18     1.17585E-15     137.393E-18    -137.393E-18
            6516               1     1.68531E-15     1.63345E-15     806.630E-18     718.883E-18
            6517               1     871.127E-18     1.18551E-15    -95.8287E-18     95.8287E-18
            6518               1     382.001E-18     227.761E-18    -85.4377E-18     85.4377E-18
            6519               1     268.068E-18     268.068E-18     91.2105E-18    -91.2105E-18
            6520               1     1.42756E-15     1.51860E-15    -703.874E-18    -821.639E-18
            6521               1     3.26113E-15     3.32278E-15     729.274E-18     796.239E-18
            6522               1     1.32380E-15     1.51271E-15    -728.120E-18    -797.393E-18
            6523               1     201.575E-03     205.251E-03     55.5696E-03     52.1729E-03
            6524               1     245.614E-03     256.500E-03     53.6969E-03     49.9385E-03
            6525               1     219.501E-03     219.192E-03     54.2641E-03     52.9881E-03
            6526               1     246.551E-03     234.955E-03     46.1397E-03     46.5971E-03
            6527               1     214.661E-03     215.045E-03     45.1174E-03     46.5382E-03
            6528               1     229.764E-03     237.746E-03     39.2075E-03     37.9608E-03
            6529               1     208.811E-03     211.221E-03     42.5458E-03     41.2718E-03
            6530               1     226.255E-03     223.076E-03     34.5461E-03     34.2879E-03
            6531               1     203.285E-03     204.636E-03     38.2675E-03     39.3862E-03
            6532               1     216.110E-03     218.805E-03     32.6829E-03     32.2412E-03
            6533               1     197.622E-03     199.019E-03     37.9827E-03     37.4118E-03
            6534               1     209.312E-03     210.103E-03     30.5669E-03     30.9479E-03
            6535               1     190.934E-03     193.519E-03     34.7722E-03     36.1613E-03
            6536               1     202.010E-03     201.322E-03     29.5608E-03     29.9165E-03
            6537               1     183.821E-03     184.118E-03     33.7730E-03     33.6308E-03
            6538               1     190.158E-03     194.553E-03     26.2050E-03     27.3513E-03
            6539               1     173.167E-03     174.549E-03     28.9816E-03     30.1798E-03
            6540               1     181.894E-03     175.969E-03     23.4240E-03     24.1845E-03
            6541               1     156.155E-03     156.006E-03     27.2558E-03     28.2777E-03
            6542               1     164.474E-03     169.848E-03     17.9542E-03     21.4433E-03
            6543               1     151.110E-03     153.577E-03     50.8507E-03     48.1904E-03
            6544               1     182.355E-03     190.436E-03     47.7398E-03     45.1893E-03
            6545               1     162.711E-03     162.304E-03     50.0503E-03     49.1868E-03
            6546               1     180.413E-03     172.224E-03     42.3537E-03     42.8617E-03
            6547               1     156.629E-03     157.123E-03     43.2266E-03     44.3869E-03
            6548               1     165.114E-03     170.860E-03     37.0404E-03     36.1925E-03
            6549               1     150.639E-03     152.177E-03     41.2502E-03     40.4200E-03
            6550               1     160.285E-03     157.856E-03     33.7152E-03     33.5593E-03
            6551               1     145.074E-03     146.027E-03     38.2201E-03     39.0571E-03
            6552               1     150.832E-03     152.860E-03     32.3302E-03     32.0257E-03
            6553               1     139.760E-03     140.757E-03     38.0301E-03     37.7409E-03
            6554               1     144.300E-03     144.493E-03     30.9195E-03     31.1634E-03
            6555               1     133.895E-03     135.578E-03     36.0678E-03     37.0130E-03
            6556               1     137.001E-03     136.981E-03     30.3917E-03     30.6451E-03
            6557               1     127.827E-03     128.288E-03     35.6637E-03     35.7820E-03
            6558               1     127.181E-03     129.403E-03     28.3721E-03     29.1195E-03
            6559               1     119.773E-03     120.930E-03     33.1954E-03     33.9812E-03
            6560               1     118.662E-03     116.198E-03     27.2100E-03     27.9199E-03
            6561               1     109.554E-03     108.286E-03     31.9748E-03     32.2602E-03
            6562               1     105.216E-03     107.872E-03     23.9113E-03     26.1925E-03
            6563               1     104.824E-03     105.802E-03     45.9044E-03     43.9978E-03
            6564               1     121.458E-03     126.665E-03     41.5083E-03     40.1544E-03
            6565               1     110.083E-03     109.692E-03     45.5821E-03     45.1119E-03
            6566               1     117.237E-03     112.778E-03     38.3484E-03     38.9348E-03
            6567               1     103.404E-03     104.120E-03     41.1688E-03     42.0631E-03
            6568               1     103.938E-03     107.346E-03     34.6071E-03     34.1571E-03
            6569               1     97.5744E-03     98.2239E-03     39.6219E-03     39.1672E-03
            6570               1     98.4274E-03     97.0006E-03     32.5606E-03     32.5942E-03
            6571               1     92.8546E-03     93.4388E-03     37.9814E-03     38.5249E-03
            6572               1     90.0784E-03     91.3692E-03     31.5268E-03     31.3282E-03
            6573               1     88.3157E-03     88.7868E-03     37.5907E-03     37.4310E-03
            6574               1     85.1302E-03     84.9342E-03     30.9949E-03     31.1934E-03
            6575               1     84.7897E-03     85.5064E-03     37.2241E-03     37.7491E-03
            6576               1     78.5247E-03     78.9571E-03     30.5623E-03     30.5250E-03
            6577               1     81.1846E-03     81.6338E-03     37.1805E-03     37.2861E-03
            6578               1     73.8553E-03     74.0991E-03     30.8068E-03     31.1484E-03
            6579               1     78.1315E-03     79.0884E-03     37.3217E-03     37.9670E-03
            6580               1     68.0501E-03     68.2324E-03     30.4427E-03     30.6583E-03
            6581               1     75.6773E-03     76.1833E-03     37.6193E-03     37.8146E-03
            6582               1     63.5079E-03     64.5222E-03     31.0735E-03     31.7614E-03
            6583               1     72.6922E-03     70.6892E-03     36.8478E-03     36.3926E-03
            6584               1     58.1981E-03     58.6978E-03     30.2142E-03     31.1311E-03
            6585               1     75.6153E-03     74.5616E-03     43.1808E-03     42.1543E-03
            6586               1     70.3025E-03     71.8697E-03     37.7775E-03     37.6363E-03
            6587               1     76.3648E-03     77.4580E-03     43.3874E-03     44.0134E-03
            6588               1     66.1375E-03     65.5965E-03     36.4810E-03     36.7136E-03
            6589               1     74.4150E-03     76.1059E-03     42.4820E-03     43.4346E-03
            6590               1     62.7817E-03     63.4106E-03     35.9965E-03     36.1451E-03
            6591               1     73.7016E-03     71.8678E-03     42.0585E-03     41.2014E-03
            6592               1     62.2893E-03     62.8166E-03     35.9494E-03     36.2075E-03
            6593               1     5.03828E-15     4.83414E-15     449.446E-18     503.999E-18
            6594               1     2.95724E-15     3.50378E-15     470.135E-18     292.621E-18
            6595               1     1.80620E-15     2.06832E-15     508.278E-18     635.857E-18
            6596               1     854.341E-18     1.57997E-15     328.124E-18     434.633E-18
            6597               1     2.17718E-15     1.54866E-15     721.202E-18     232.244E-18
            6598               1     1.81526E-15     2.52025E-15     747.747E-18     777.766E-18
            6599               1     451.124E-18     774.303E-18     83.6034E-18     297.775E-18
            6600               1     2.37046E-15     2.32679E-15     670.494E-18     473.641E-18
            6601               1     2.78243E-15     2.84974E-15    -1.47789E-15    -1.57314E-15
            6602               1     1.22636E-15     1.95297E-15     502.794E-18     641.341E-18
            6603               1     991.785E-18     683.286E-18     491.639E-18     271.118E-18
            6604               1     2.01104E-15     2.61607E-15     463.250E-18     680.885E-18
            6605               1     4.15943E-15     4.13921E-15    -326.062E-18    -55.3166E-18
            6606               1     1.67336E-15     1.84292E-15    -909.861E-18    -997.031E-18
            6607               1     4.35981E-15     4.62693E-15     942.664E-18     1.34561E-15
            6608               1     658.492E-18     837.920E-18     214.935E-18     166.443E-18
            6609               1     2.24759E-15     2.74322E-15    -1.01136E-15    -1.27691E-15
            6610               1     2.85594E-15     1.99243E-15    -1.00637E-15    -519.144E-18
            6611               1     1.68892E-15     1.17279E-15     606.518E-18     156.238E-18
            6612               1     1.77185E-15     2.44243E-15     268.622E-18     112.756E-18
            6613               1     582.467E-18     1.58058E-15    -205.698E-18    -175.680E-18
            6614               1     2.41305E-15     1.58923E-15     1.38428E-15     903.986E-18
            6615               1     2.98859E-15     3.29264E-15     935.550E-18     971.341E-18
            6616               1     3.91474E-15     4.11108E-15    -399.088E-18     17.7095E-18
            6617               1     1.69082E-15     699.983E-18     44.4507E-18    -44.4507E-18
            6618               1     2.41826E-15     1.91887E-15     200.503E-18     180.875E-18
            6619               1     2.80377E-15     3.48311E-15     242.067E-18     139.311E-18
            6620               1     3.48019E-15     3.79365E-15    -1.31443E-15    -973.837E-18
            6621               1     1.39146E-15     823.491E-18    -4.61825E-18     4.61825E-18
            6622               1     2.05854E-15     1.83990E-15     913.427E-18     612.086E-18
            6623               1     764.649E-18     1.49593E-15     8.08194E-18    -8.08194E-18
            6624               1     1.23522E-15     1.23486E-15     358.864E-18     403.892E-18
            6625               1     2.66518E-15     2.87967E-15    -1.20302E-15    -1.08525E-15
            6626               1     2.63877E-15     2.74153E-15     745.438E-18     780.075E-18
            6627               1     2.40079E-15     2.30361E-15     107.952E-18    -107.952E-18
            6628               1     2.01284E-15     1.39405E-15    -837.803E-18    -687.710E-18
            6629               1     2.29608E-15     2.26161E-15    -1.12104E-15    -1.16723E-15
            6630               1     2.11933E-15     2.35134E-15     315.568E-18     447.188E-18
            6631               1     1.56999E-15     1.73196E-15     431.025E-18     331.732E-18
            6632               1     1.26501E-15     1.52174E-15     429.870E-18     332.887E-18
            6633               1     719.401E-18     350.816E-18    -20.7821E-18     20.7821E-18
            6634               1     500.911E-18     519.305E-18     8.08194E-18    -8.08194E-18


  Minimum                            96.0405E-18     96.0405E-18    -73.6229E-03    -72.8953E-03
      At Element                            5479            5479             348            5189
          Int Pt                               1               1               1               1

  Maximum                            371.403E-03     365.161E-03     84.9483E-03     70.1596E-03
      At Element                             378            5190             384             384
          Int Pt                               1               1               1               1

           Total                         570.043         573.728    -143.800E-03    -146.800E-03


Field Output reported at integration points for region: B737-1.Region_2

   Element Label             Int         S.Mises         S.Mises           S.S12           S.S12
                              Pt          @Loc 1          @Loc 2          @Loc 1          @Loc 2
-------------------------------------------------------------------------------------------------
            1732               1     27.6871E-03     31.7389E-03    -14.8603E-03    -12.3527E-03
            1733               1     30.2346E-03     30.3557E-03    -17.3890E-03    -16.1226E-03
            1734               1     29.5974E-03     30.9697E-03    -16.9782E-03    -16.9048E-03
            1735               1     30.6496E-03     31.2031E-03    -17.5738E-03    -17.0924E-03
            1736               1     29.3792E-03     31.2061E-03    -16.7323E-03    -16.9346E-03
            1737               1     27.5956E-03     28.8324E-03    -15.6821E-03    -15.4809E-03
            1738               1     23.9377E-03     27.3916E-03    -13.6217E-03    -14.6696E-03
            1739               1     17.6996E-03     20.0446E-03    -9.15131E-03    -11.4107E-03
            1740               1     22.7335E-03     22.6861E-03    -11.1171E-03    -12.3427E-03
            1741               1     31.1944E-03     29.7093E-03    -17.6693E-03    -16.2313E-03
            1742               1     31.6643E-03     30.7554E-03    -18.1731E-03    -17.1822E-03
            1743               1     31.5967E-03     32.5219E-03    -17.9839E-03    -17.9704E-03
            1744               1     31.6575E-03     31.7510E-03    -17.8714E-03    -17.2903E-03
            1745               1     29.5102E-03     31.5631E-03    -16.3234E-03    -16.8015E-03
            1746               1     26.3321E-03     28.5763E-03    -14.5451E-03    -15.4935E-03
            1747               1     18.8238E-03     17.2858E-03    -10.1308E-03    -9.77355E-03
            1748               1     17.9817E-03     20.7393E-03    -10.2645E-03    -11.6258E-03
            1749               1     26.5627E-03     28.0430E-03    -14.9754E-03    -16.0209E-03
            1750               1     32.3300E-03     32.3153E-03    -18.4369E-03    -18.2563E-03
            1751               1     33.3519E-03     32.9027E-03    -18.9412E-03    -18.4120E-03
            1752               1     33.2171E-03     33.8922E-03    -18.4941E-03    -18.5171E-03
            1753               1     32.3024E-03     32.3623E-03    -17.6218E-03    -17.3320E-03
            1754               1     28.5786E-03     26.7965E-03    -14.9726E-03    -14.0409E-03
            1755               1     19.9330E-03     20.2121E-03    -9.88592E-03    -9.13503E-03
            1756               1     18.1150E-03     19.9913E-03    -10.4171E-03    -11.4454E-03
            1757               1     25.5449E-03     27.4796E-03    -14.7340E-03    -15.8235E-03
            1758               1     30.7826E-03     31.9814E-03    -17.5670E-03    -18.3261E-03
            1759               1     34.1667E-03     34.5006E-03    -19.2994E-03    -19.4146E-03
            1760               1     34.7822E-03     34.3713E-03    -19.2619E-03    -18.8783E-03
            1761               1     33.9120E-03     32.5841E-03    -18.0405E-03    -17.2383E-03
            1762               1     29.8724E-03     29.1091E-03    -14.9887E-03    -13.9923E-03
            1763               1     25.0876E-03     22.8142E-03    -9.84496E-03    -8.99374E-03
            1764               1     19.2653E-03     20.3410E-03    -10.3749E-03    -11.3120E-03
            1765               1     25.2926E-03     27.3388E-03    -14.5844E-03    -15.7008E-03
            1766               1     30.4062E-03     31.8150E-03    -17.4922E-03    -18.3100E-03
            1767               1     33.9082E-03     34.2958E-03    -19.1516E-03    -19.4916E-03
            1768               1     35.6665E-03     35.2519E-03    -19.4996E-03    -19.3603E-03
            1769               1     34.5954E-03     33.5189E-03    -18.0484E-03    -17.2122E-03
            1770               1     32.8855E-03     30.7141E-03    -15.1527E-03    -14.1561E-03
            1771               1     28.6668E-03     28.5698E-03    -10.2569E-03    -9.18046E-03
            1772               1     19.9647E-03     22.9513E-03    -10.0158E-03    -11.0453E-03
            1773               1     25.8464E-03     27.3227E-03    -14.5322E-03    -15.5058E-03
            1774               1     31.1041E-03     31.5235E-03    -17.9280E-03    -18.1818E-03
            1775               1     33.4476E-03     32.9553E-03    -18.7768E-03    -18.7631E-03
            1776               1     34.2468E-03     34.4482E-03    -18.5818E-03    -19.1424E-03
            1777               1     36.3691E-03     35.9607E-03    -18.3565E-03    -18.4846E-03
            1778               1     35.0528E-03     34.1780E-03    -15.5311E-03    -14.2264E-03
            1779               1     35.2137E-03     31.7803E-03    -10.2796E-03    -9.18122E-03
            1780               1     26.4983E-03     25.0210E-03    -10.6341E-03    -11.2941E-03
            1781               1     29.6000E-03     28.8491E-03    -16.6472E-03    -15.5434E-03
            1782               1     29.8632E-03     29.0421E-03    -17.1602E-03    -16.7243E-03
            1783               1     30.9172E-03     31.1594E-03    -17.3206E-03    -17.9001E-03
            1784               1     33.6217E-03     32.1567E-03    -17.8217E-03    -17.8428E-03
            1785               1     34.8869E-03     34.5438E-03    -17.2382E-03    -18.3882E-03
            1786               1     39.9873E-03     39.8036E-03    -16.6752E-03    -17.9014E-03
            1787               1     40.1157E-03     42.3557E-03    -11.9934E-03    -10.7765E-03
            1788               1     29.9571E-03     35.0839E-03    -14.1606E-03    -11.6303E-03
            1789               1     27.0819E-03     27.6376E-03    -15.5050E-03    -14.5479E-03
            1790               1     26.1223E-03     26.6145E-03    -15.0196E-03    -15.1865E-03
            1791               1     28.7543E-03     27.2385E-03    -15.8808E-03    -15.6836E-03
            1792               1     30.8228E-03     29.3739E-03    -16.0190E-03    -16.5342E-03
            1793               1     34.2453E-03     30.5933E-03    -16.0405E-03    -16.1110E-03
            1794               1     40.2522E-03     36.2909E-03    -16.6148E-03    -18.1775E-03
            1795               1     54.9042E-03     45.3876E-03    -15.1677E-03    -17.0763E-03
            1796               1     28.1838E-03     31.3179E-03    -15.9843E-03    -13.4506E-03
            1797               1     34.1038E-03     34.1852E-03    -19.5733E-03    -17.8145E-03
            1798               1     34.4372E-03     36.6007E-03    -18.9028E-03    -18.4290E-03
            1799               1     37.2869E-03     39.0296E-03    -19.1268E-03    -18.2692E-03
            1800               1     38.3394E-03     41.0152E-03    -17.1430E-03    -16.9905E-03
            1801               1     40.0212E-03     42.3275E-03    -14.9577E-03    -14.5507E-03
            1802               1     39.0319E-03     42.9905E-03    -10.2734E-03    -10.8782E-03
            1803               1     33.9511E-03     41.9724E-03    -2.88462E-03    -5.43777E-03
            1804               1     22.3076E-03     23.8977E-03    -11.9051E-03    -13.7079E-03
            1805               1     33.8532E-03     31.2714E-03    -18.9661E-03    -16.8640E-03
            1806               1     35.5178E-03     34.0731E-03    -19.3439E-03    -17.4431E-03
            1807               1     37.7804E-03     38.4195E-03    -18.5605E-03    -17.6636E-03
            1808               1     41.2691E-03     42.0193E-03    -17.6938E-03    -16.4778E-03
            1809               1     43.8609E-03     46.2094E-03    -15.0667E-03    -14.9592E-03
            1810               1     46.9039E-03     49.9213E-03    -12.0235E-03    -12.8801E-03
            1811               1     49.6343E-03     47.3714E-03    -7.97844E-03    -8.66611E-03
            1812               1     19.4936E-03     21.9361E-03    -10.9281E-03    -12.6168E-03
            1813               1     28.5824E-03     29.2112E-03    -15.7212E-03    -16.5169E-03
            1814               1     36.0104E-03     34.4730E-03    -19.0867E-03    -18.0082E-03
            1815               1     39.5403E-03     38.5578E-03    -19.0529E-03    -17.7262E-03
            1816               1     43.8690E-03     44.2114E-03    -18.1336E-03    -17.4360E-03
            1817               1     48.6479E-03     49.3854E-03    -16.5198E-03    -15.9685E-03
            1818               1     52.7431E-03     52.1969E-03    -14.0067E-03    -13.7649E-03
            1819               1     53.2609E-03     54.6628E-03    -9.06013E-03    -8.93153E-03
            1820               1     20.5886E-03     22.2273E-03    -11.2972E-03    -12.1547E-03
            1821               1     26.8917E-03     28.1341E-03    -15.3114E-03    -16.0616E-03
            1822               1     34.0407E-03     34.0043E-03    -17.7675E-03    -18.0790E-03
            1823               1     40.8589E-03     40.0705E-03    -19.4055E-03    -18.8348E-03
            1824               1     46.2400E-03     45.7752E-03    -18.7940E-03    -18.0276E-03
            1825               1     51.8619E-03     51.0766E-03    -17.4881E-03    -16.7235E-03
            1826               1     55.6279E-03     55.8012E-03    -14.2546E-03    -13.6655E-03
            1827               1     60.9760E-03     59.1635E-03    -8.98858E-03    -8.84744E-03
            1828               1     22.1974E-03     23.0599E-03    -11.1530E-03    -12.0265E-03
            1829               1     25.9903E-03     27.5228E-03    -14.9163E-03    -15.8733E-03
            1830               1     33.3519E-03     34.2068E-03    -17.8920E-03    -18.4825E-03
            1831               1     40.6594E-03     40.4107E-03    -19.0608E-03    -19.1355E-03
            1832               1     47.9299E-03     47.2119E-03    -19.3980E-03    -18.9627E-03
            1833               1     53.8440E-03     53.3514E-03    -17.6289E-03    -16.8086E-03
            1834               1     60.1760E-03     58.5955E-03    -14.3733E-03    -13.6156E-03
            1835               1     65.6487E-03     65.3360E-03    -9.53630E-03    -8.90785E-03
            1836               1     23.9433E-03     25.3484E-03    -11.0171E-03    -11.6549E-03
            1837               1     26.1736E-03     27.6786E-03    -15.0050E-03    -15.9258E-03
            1838               1     32.4144E-03     33.5073E-03    -17.6043E-03    -18.5250E-03
            1839               1     40.6946E-03     41.1682E-03    -19.3823E-03    -19.8527E-03
            1840               1     48.3095E-03     48.0028E-03    -19.2027E-03    -19.0461E-03
            1841               1     56.5031E-03     55.3739E-03    -17.9890E-03    -17.3906E-03
            1842               1     63.4834E-03     63.0622E-03    -14.6747E-03    -13.6951E-03
            1843               1     72.3036E-03     69.8887E-03    -9.38806E-03    -8.65466E-03
            1844               1     27.3826E-03     27.2155E-03    -11.1605E-03    -11.4306E-03
            1845               1     26.2253E-03     27.9147E-03    -14.8281E-03    -15.6663E-03
            1846               1     31.5817E-03     32.9479E-03    -17.5192E-03    -18.4672E-03
            1847               1     39.7893E-03     40.1972E-03    -19.1091E-03    -19.9153E-03
            1848               1     49.5939E-03     49.7905E-03    -19.5872E-03    -20.1004E-03
            1849               1     57.8078E-03     57.5322E-03    -17.8955E-03    -17.2768E-03
            1850               1     67.8775E-03     66.0101E-03    -14.9967E-03    -14.1693E-03
            1851               1     76.9228E-03     76.5816E-03    -10.3727E-03    -9.32625E-03
            1852               1     28.6850E-03     31.2038E-03    -10.2465E-03    -10.7038E-03
            1853               1     26.7875E-03     27.6574E-03    -14.4880E-03    -15.0612E-03
            1854               1     31.4184E-03     31.9490E-03    -17.6743E-03    -18.2787E-03
            1855               1     39.2748E-03     38.9335E-03    -18.5743E-03    -19.2859E-03
            1856               1     47.7991E-03     47.6851E-03    -18.6392E-03    -19.9996E-03
            1857               1     60.8655E-03     61.2366E-03    -18.8861E-03    -19.7860E-03
            1858               1     70.9420E-03     71.4053E-03    -15.8197E-03    -14.3216E-03
            1859               1     83.8094E-03     79.9460E-03    -10.4775E-03    -9.16740E-03
            1860               1     35.8382E-03     33.7369E-03    -10.5592E-03    -10.3949E-03
            1861               1     29.6527E-03     29.6750E-03    -15.9458E-03    -15.0327E-03
            1862               1     29.1996E-03     28.4890E-03    -16.2221E-03    -16.3068E-03
            1863               1     35.6036E-03     34.9935E-03    -16.6393E-03    -17.8622E-03
            1864               1     47.2336E-03     44.9231E-03    -17.5529E-03    -18.4438E-03
            1865               1     58.5958E-03     56.5429E-03    -18.0995E-03    -20.2370E-03
            1866               1     77.5485E-03     77.0933E-03    -18.9193E-03    -20.6836E-03
            1867               1     89.6686E-03     92.6809E-03    -13.9473E-03    -11.9045E-03
            1868               1     37.5619E-03     42.9717E-03    -13.9630E-03    -11.4370E-03
            1869               1     24.7901E-03     26.0874E-03    -13.7116E-03    -13.0299E-03
            1870               1     23.2469E-03     22.9302E-03    -12.8529E-03    -13.2145E-03
            1871               1     31.7779E-03     28.3491E-03    -13.7548E-03    -13.8941E-03
            1872               1     42.9883E-03     38.3798E-03    -14.9513E-03    -15.8600E-03
            1873               1     57.1327E-03     49.8399E-03    -16.1053E-03    -16.5954E-03
            1874               1     75.0262E-03     65.7975E-03    -19.9505E-03    -22.2452E-03
            1875               1     106.669E-03     91.8587E-03    -22.4262E-03    -23.9091E-03
            1876               1     29.2500E-03     29.1764E-03    -16.7835E-03    -14.2433E-03
            1877               1     38.2965E-03     38.0060E-03    -22.0392E-03    -19.7903E-03
            1878               1     40.6740E-03     43.7250E-03    -21.0768E-03    -20.2373E-03
            1879               1     48.8643E-03     51.3089E-03    -21.1894E-03    -19.9153E-03
            1880               1     56.3874E-03     58.5089E-03    -17.8098E-03    -17.2243E-03
            1881               1     66.5004E-03     67.2918E-03    -14.3751E-03    -13.6406E-03
            1882               1     74.6066E-03     75.0255E-03    -6.40574E-03    -6.35265E-03
            1883               1     85.1716E-03     88.3376E-03     4.74166E-03     1.83913E-03
            1884               1     22.7083E-03     27.3483E-03    -12.5953E-03    -15.2034E-03
            1885               1     35.7247E-03     32.1226E-03    -20.0260E-03    -17.3962E-03
            1886               1     41.0753E-03     39.1570E-03    -20.6901E-03    -17.8947E-03
            1887               1     49.1398E-03     49.3338E-03    -19.1350E-03    -17.3207E-03
            1888               1     60.7680E-03     61.4394E-03    -17.6893E-03    -15.6470E-03
            1889               1     72.2579E-03     73.7862E-03    -13.7683E-03    -12.7795E-03
            1890               1     86.7914E-03     89.7948E-03    -9.23096E-03    -9.74517E-03
            1891               1     99.6160E-03     97.7959E-03    -5.62495E-03    -7.33809E-03
            1892               1     23.1664E-03     24.9207E-03    -11.1778E-03    -13.4282E-03
            1893               1     30.1526E-03     30.3232E-03    -16.4098E-03    -17.1996E-03
            1894               1     41.0789E-03     38.0131E-03    -19.4400E-03    -17.5584E-03
            1895               1     51.6211E-03     50.1033E-03    -19.2895E-03    -17.0853E-03
            1896               1     64.5449E-03     64.3116E-03    -17.7794E-03    -16.1874E-03
            1897               1     79.0744E-03     80.1518E-03    -15.4578E-03    -14.3877E-03
            1898               1     93.0939E-03     93.2388E-03    -13.2459E-03    -13.5222E-03
            1899               1     103.178E-03     103.823E-03    -8.37180E-03    -8.64644E-03
            1900               1     25.1346E-03     26.9804E-03    -11.7921E-03    -12.7614E-03
            1901               1     27.2910E-03     28.0611E-03    -15.3538E-03    -15.9785E-03
            1902               1     39.6481E-03     38.3129E-03    -18.0576E-03    -17.9816E-03
            1903               1     53.4995E-03     51.4023E-03    -19.2818E-03    -17.9456E-03
            1904               1     67.7177E-03     67.0413E-03    -18.4094E-03    -17.1392E-03
            1905               1     83.1894E-03     82.5824E-03    -17.2162E-03    -16.3594E-03
            1906               1     96.3835E-03     96.1469E-03    -13.6899E-03    -13.2914E-03
            1907               1     111.084E-03     109.122E-03    -8.35689E-03    -8.73909E-03
            1908               1     27.5590E-03     28.2003E-03    -11.3262E-03    -12.4114E-03
            1909               1     27.0553E-03     28.0318E-03    -15.3493E-03    -16.1089E-03
            1910               1     38.2793E-03     37.8415E-03    -17.7989E-03    -17.9793E-03
            1911               1     53.7740E-03     52.7653E-03    -19.0312E-03    -18.8365E-03
            1912               1     70.1502E-03     68.8058E-03    -19.1877E-03    -18.3565E-03
            1913               1     85.2288E-03     84.3467E-03    -17.2185E-03    -16.4339E-03
            1914               1     101.434E-03     99.9837E-03    -14.1784E-03    -13.6588E-03
            1915               1     116.861E-03     114.924E-03    -9.19481E-03    -8.68924E-03
            1916               1     30.4703E-03     30.7833E-03    -11.8792E-03    -12.1421E-03
            1917               1     26.4047E-03     27.7845E-03    -15.1005E-03    -15.9641E-03
            1918               1     37.5387E-03     38.0512E-03    -17.8475E-03    -18.6586E-03
            1919               1     53.7568E-03     53.0691E-03    -19.2634E-03    -19.3493E-03
            1920               1     70.7776E-03     70.1158E-03    -19.1039E-03    -19.0219E-03
            1921               1     88.4385E-03     87.2498E-03    -17.6827E-03    -16.9014E-03
            1922               1     104.980E-03     103.257E-03    -14.1546E-03    -13.4073E-03
            1923               1     122.271E-03     120.522E-03    -9.22916E-03    -8.89916E-03
            1924               1     33.1920E-03     33.9596E-03    -11.3150E-03    -11.8622E-03
            1925               1     27.1338E-03     28.2682E-03    -15.3471E-03    -16.0864E-03
            1926               1     36.2608E-03     37.0377E-03    -17.8219E-03    -18.8240E-03
            1927               1     53.3183E-03     53.7566E-03    -19.3180E-03    -20.2516E-03
            1928               1     71.6563E-03     71.1743E-03    -19.2909E-03    -19.3297E-03
            1929               1     90.4113E-03     89.5125E-03    -17.8302E-03    -17.5350E-03
            1930               1     109.162E-03     108.159E-03    -14.5731E-03    -13.6246E-03
            1931               1     128.618E-03     125.390E-03    -9.27953E-03    -8.47648E-03
            1932               1     37.0402E-03     36.5877E-03    -11.5071E-03    -11.2862E-03
            1933               1     27.1576E-03     28.7394E-03    -15.0064E-03    -15.7877E-03
            1934               1     34.8305E-03     35.9367E-03    -17.5000E-03    -18.7327E-03
            1935               1     51.9265E-03     52.0812E-03    -19.2185E-03    -20.5627E-03
            1936               1     72.7244E-03     73.3774E-03    -19.7039E-03    -20.9431E-03
            1937               1     92.1978E-03     92.1849E-03    -17.9784E-03    -17.4862E-03
            1938               1     113.155E-03     111.232E-03    -15.0841E-03    -14.2744E-03
            1939               1     133.119E-03     132.023E-03    -10.7073E-03    -9.48387E-03
            1940               1     38.9240E-03     40.9992E-03    -10.2656E-03    -10.2216E-03
            1941               1     27.2011E-03     27.9463E-03    -14.1836E-03    -14.5708E-03
            1942               1     33.4396E-03     34.0236E-03    -17.3911E-03    -18.6004E-03
            1943               1     51.0736E-03     50.7629E-03    -18.3481E-03    -19.9664E-03
            1944               1     70.2692E-03     69.7947E-03    -18.9033E-03    -21.1184E-03
            1945               1     95.2860E-03     96.3494E-03    -19.6781E-03    -21.3063E-03
            1946               1     116.368E-03     117.481E-03    -16.3954E-03    -14.4754E-03
            1947               1     139.646E-03     135.003E-03    -10.9061E-03    -9.20847E-03
            1948               1     45.7429E-03     44.0567E-03    -10.1816E-03    -9.19434E-03
            1949               1     29.3130E-03     30.4230E-03    -15.0178E-03    -14.5370E-03
            1950               1     30.0547E-03     29.5301E-03    -15.0270E-03    -15.9088E-03
            1951               1     46.2241E-03     44.7941E-03    -15.9796E-03    -18.0247E-03
            1952               1     69.1174E-03     66.2188E-03    -17.3929E-03    -19.2217E-03
            1953               1     91.1566E-03     87.9437E-03    -19.2966E-03    -22.4163E-03
            1954               1     123.403E-03     123.148E-03    -21.6403E-03    -23.8643E-03
            1955               1     146.073E-03     149.567E-03    -16.3129E-03    -13.2108E-03
            1956               1     46.3243E-03     50.5403E-03    -13.4946E-03    -10.9902E-03
            1957               1     22.0959E-03     23.7208E-03    -11.4515E-03    -11.2121E-03
            1958               1     22.2955E-03     21.1299E-03    -10.4923E-03    -11.1580E-03
            1959               1     41.2784E-03     36.6678E-03    -11.4730E-03    -12.0300E-03
            1960               1     63.1445E-03     56.3211E-03    -13.9913E-03    -15.3363E-03
            1961               1     88.0854E-03     78.0082E-03    -16.4229E-03    -17.3215E-03
            1962               1     116.833E-03     103.350E-03    -23.8907E-03    -26.9292E-03
            1963               1     164.488E-03     144.977E-03    -30.5700E-03    -31.6038E-03
            1964               1     33.1699E-03     27.5101E-03    -17.5532E-03    -15.0047E-03
            1965               1     42.5021E-03     41.4905E-03    -24.5172E-03    -21.7980E-03
            1966               1     47.9287E-03     51.7073E-03    -23.5541E-03    -22.3623E-03
            1967               1     63.1059E-03     65.7973E-03    -23.4635E-03    -21.7608E-03
            1968               1     78.8516E-03     79.8315E-03    -18.7035E-03    -17.6662E-03
            1969               1     98.5869E-03     97.1592E-03    -13.8958E-03    -12.7791E-03
            1970               1     116.650E-03     113.200E-03    -2.31350E-03    -1.53687E-03
            1971               1     142.826E-03     141.354E-03     13.0061E-03     9.66624E-03
            1972               1     26.4719E-03     34.2177E-03    -13.1602E-03    -16.6098E-03
            1973               1     37.6007E-03     32.9526E-03    -21.1981E-03    -18.0654E-03
            1974               1     47.4793E-03     45.1123E-03    -22.0155E-03    -18.3595E-03
            1975               1     63.5578E-03     63.2587E-03    -19.8735E-03    -17.1559E-03
            1976               1     85.0659E-03     85.3850E-03    -17.7586E-03    -14.8104E-03
            1977               1     106.214E-03     106.893E-03    -12.4744E-03    -10.5241E-03
            1978               1     133.203E-03     136.441E-03    -6.32663E-03    -6.44068E-03
            1979               1     155.973E-03     154.598E-03    -3.12348E-03    -5.96359E-03
            1980               1     30.5958E-03     31.3226E-03    -11.3913E-03    -14.1787E-03
            1981               1     31.2220E-03     31.1386E-03    -16.9308E-03    -17.8149E-03
            1982               1     47.3249E-03     42.9105E-03    -19.9196E-03    -17.3146E-03
            1983               1     67.0518E-03     65.1164E-03    -19.5098E-03    -16.4110E-03
            1984               1     89.8189E-03     89.2202E-03    -17.5163E-03    -15.0333E-03
            1985               1     115.381E-03     116.948E-03    -14.4700E-03    -12.7684E-03
            1986               1     139.443E-03     140.140E-03    -12.5087E-03    -13.2991E-03
            1987               1     159.017E-03     158.842E-03    -7.77867E-03    -8.51490E-03
            1988               1     32.4445E-03     34.6879E-03    -11.8588E-03    -13.1066E-03
            1989               1     27.6361E-03     28.0328E-03    -15.4351E-03    -16.0231E-03
            1990               1     46.3985E-03     43.8346E-03    -18.1881E-03    -17.8058E-03
            1991               1     69.4657E-03     66.5668E-03    -19.2966E-03    -17.3331E-03
            1992               1     94.1253E-03     93.4450E-03    -18.1065E-03    -16.2490E-03
            1993               1     119.836E-03     119.401E-03    -17.0378E-03    -16.0956E-03
            1994               1     142.939E-03     142.389E-03    -13.3636E-03    -13.0613E-03
            1995               1     167.313E-03     164.687E-03    -7.80679E-03    -8.56477E-03
            1996               1     35.9502E-03     36.0907E-03    -11.3288E-03    -12.5399E-03
            1997               1     27.3774E-03     28.1098E-03    -15.3498E-03    -16.1142E-03
            1998               1     44.7535E-03     43.4449E-03    -17.7935E-03    -17.7816E-03
            1999               1     70.2902E-03     68.6507E-03    -18.9641E-03    -18.5053E-03
            2000               1     96.9318E-03     95.3202E-03    -19.1635E-03    -18.1287E-03
            2001               1     122.051E-03     120.977E-03    -17.0754E-03    -16.1763E-03
            2002               1     148.326E-03     146.509E-03    -14.0860E-03    -13.6668E-03
            2003               1     173.461E-03     170.418E-03    -9.17498E-03    -8.73903E-03
            2004               1     38.8839E-03     39.1330E-03    -11.8791E-03    -12.1421E-03
            2005               1     26.6904E-03     27.9383E-03    -15.1005E-03    -15.9641E-03
            2006               1     43.9674E-03     43.7493E-03    -17.8475E-03    -18.6586E-03
            2007               1     70.3009E-03     69.0823E-03    -19.2634E-03    -19.3493E-03
            2008               1     97.6314E-03     96.6527E-03    -19.1039E-03    -19.0219E-03
            2009               1     125.593E-03     124.165E-03    -17.6827E-03    -16.9014E-03
            2010               1     151.850E-03     149.522E-03    -14.1546E-03    -13.4073E-03
            2011               1     178.679E-03     176.160E-03    -9.22916E-03    -8.89916E-03
            2012               1     42.3653E-03     42.7565E-03    -11.3124E-03    -11.7336E-03
            2013               1     27.4913E-03     28.4551E-03    -15.3465E-03    -16.0811E-03
            2014               1     42.2136E-03     42.4156E-03    -17.8273E-03    -19.0217E-03
            2015               1     69.7787E-03     69.7706E-03    -19.3852E-03    -20.5827E-03
            2016               1     98.5358E-03     97.8400E-03    -19.3151E-03    -19.5575E-03
            2017               1     127.408E-03     126.309E-03    -17.9734E-03    -17.7927E-03
            2018               1     156.173E-03     154.800E-03    -14.6655E-03    -13.6166E-03
            2019               1     185.273E-03     180.928E-03    -9.29937E-03    -8.42668E-03
            2020               1     46.2533E-03     45.8240E-03    -11.4404E-03    -10.9409E-03
            2021               1     27.4424E-03     29.0242E-03    -14.9251E-03    -15.7430E-03
            2022               1     40.3245E-03     40.7732E-03    -17.3695E-03    -18.9085E-03
            2023               1     67.6906E-03     67.3371E-03    -19.2037E-03    -21.1752E-03
            2024               1     99.4578E-03     100.190E-03    -20.0069E-03    -21.8334E-03
            2025               1     129.152E-03     129.307E-03    -18.1568E-03    -17.7500E-03
            2026               1     159.971E-03     157.694E-03    -15.4104E-03    -14.5045E-03
            2027               1     189.455E-03     187.695E-03    -11.2574E-03    -9.65818E-03
            2028               1     48.7080E-03     50.3699E-03    -10.0521E-03    -9.47114E-03
            2029               1     26.9500E-03     27.6818E-03    -13.6625E-03    -13.9556E-03
            2030               1     37.4688E-03     37.6749E-03    -16.9116E-03    -18.8442E-03
            2031               1     66.4335E-03     65.8622E-03    -18.1277E-03    -20.6406E-03
            2032               1     95.9186E-03     95.0776E-03    -19.1664E-03    -22.2725E-03
            2033               1     132.145E-03     133.694E-03    -20.6659E-03    -22.9256E-03
            2034               1     163.098E-03     164.738E-03    -17.1326E-03    -14.6985E-03
            2035               1     195.670E-03     190.167E-03    -11.4992E-03    -9.34002E-03
            2036               1     54.9141E-03     54.0590E-03    -9.61665E-03    -7.78795E-03
            2037               1     28.3129E-03     30.4929E-03    -13.8456E-03    -13.8678E-03
            2038               1     33.2184E-03     32.6245E-03    -13.7015E-03    -15.4440E-03
            2039               1     60.2610E-03     58.0889E-03    -15.2410E-03    -18.1895E-03
            2040               1     93.9590E-03     90.4782E-03    -17.3235E-03    -20.0583E-03
            2041               1     125.759E-03     121.604E-03    -20.5905E-03    -24.6717E-03
            2042               1     170.413E-03     170.421E-03    -24.5447E-03    -27.1688E-03
            2043               1     202.693E-03     206.642E-03    -18.8144E-03    -14.5853E-03
            2044               1     54.7232E-03     57.0704E-03    -12.7249E-03    -10.2288E-03
            2045               1     19.2370E-03     20.6622E-03    -8.97351E-03    -9.20441E-03
            2046               1     24.4574E-03     22.8540E-03    -8.01509E-03    -9.03309E-03
            2047               1     54.5752E-03     49.3790E-03    -9.19895E-03    -10.1845E-03
            2048               1     86.0426E-03     77.4871E-03    -13.0976E-03    -14.8944E-03
            2049               1     120.905E-03     108.286E-03    -16.9022E-03    -18.1830E-03
            2050               1     159.608E-03     142.237E-03    -27.9829E-03    -31.7449E-03
            2051               1     222.420E-03     198.448E-03    -38.8345E-03    -39.4309E-03
            2052               1     40.3654E-03     28.5469E-03    -18.3588E-03    -15.9646E-03
            2053               1     46.4803E-03     44.1748E-03    -26.8087E-03    -23.9960E-03
            2054               1     55.8542E-03     59.7782E-03    -26.7714E-03    -25.4962E-03
            2055               1     77.7549E-03     80.4671E-03    -26.0389E-03    -24.1364E-03
            2056               1     101.960E-03     101.981E-03    -20.2986E-03    -18.9366E-03
            2057               1     131.125E-03     127.774E-03    -13.8899E-03    -12.3301E-03
            2058               1     158.647E-03     151.715E-03     1.34364E-03     2.86990E-03
            2059               1     199.331E-03     193.920E-03     20.9305E-03     16.9175E-03
            2060               1     34.6892E-03     44.7612E-03    -13.5322E-03    -17.5856E-03
            2061               1     40.0605E-03     35.1759E-03    -22.7801E-03    -19.6705E-03
            2062               1     53.1732E-03     50.7925E-03    -23.2378E-03    -19.4721E-03
            2063               1     78.3493E-03     78.0678E-03    -21.3000E-03    -18.3219E-03
            2064               1     110.164E-03     110.616E-03    -18.1197E-03    -14.5279E-03
            2065               1     140.319E-03     140.867E-03    -11.7494E-03    -8.86768E-03
            2066               1     179.471E-03     183.777E-03    -3.89424E-03    -3.45377E-03
            2067               1     212.255E-03     211.028E-03    -818.160E-06    -4.75894E-03
            2068               1     42.3314E-03     42.3803E-03    -11.5082E-03    -14.5286E-03
            2069               1     31.1325E-03     32.2458E-03    -17.1912E-03    -18.5961E-03
            2070               1     53.0635E-03     48.5848E-03    -20.9812E-03    -18.6287E-03
            2071               1     82.4611E-03     80.9489E-03    -19.7631E-03    -16.6562E-03
            2072               1     115.240E-03     115.580E-03    -18.0557E-03    -15.3910E-03
            2073               1     152.214E-03     155.691E-03    -13.9480E-03    -11.5687E-03
            2074               1     185.566E-03     187.313E-03    -12.1801E-03    -13.1133E-03
            2075               1     213.521E-03     213.591E-03    -7.91767E-03    -8.90411E-03
            2076               1     44.1254E-03     47.4108E-03    -10.6280E-03    -12.1125E-03
            2077               1     27.8533E-03     28.5439E-03    -15.4819E-03    -16.4370E-03
            2078               1     51.1413E-03     48.1720E-03    -17.9411E-03    -18.4067E-03
            2079               1     84.9679E-03     83.0909E-03    -20.0384E-03    -19.0299E-03
            2080               1     120.296E-03     121.326E-03    -18.0733E-03    -16.4685E-03
            2081               1     156.300E-03     157.773E-03    -18.0010E-03    -17.3692E-03
            2082               1     189.205E-03     190.602E-03    -14.1687E-03    -13.1735E-03
            2083               1     223.308E-03     219.119E-03    -7.78527E-03    -8.06011E-03
            2084               1     49.1935E-03     49.0198E-03    -10.1639E-03    -10.6449E-03
            2085               1     25.1940E-03     27.0160E-03    -13.8364E-03    -15.0873E-03
            2086               1     48.6011E-03     46.9438E-03    -17.1182E-03    -18.2295E-03
            2087               1     83.8213E-03     82.1529E-03    -18.4125E-03    -19.8763E-03
            2088               1     123.111E-03     124.075E-03    -20.6882E-03    -21.7701E-03
            2089               1     157.939E-03     159.913E-03    -18.0880E-03    -17.0813E-03
            2090               1     194.624E-03     193.353E-03    -15.9727E-03    -14.9749E-03
            2091               1     227.997E-03     226.421E-03    -12.3166E-03    -10.1141E-03
            2092               1     51.1830E-03     53.4715E-03    -8.77212E-03    -8.14250E-03
            2093               1     23.5848E-03     24.5177E-03    -12.3164E-03    -12.9306E-03
            2094               1     44.2760E-03     42.4791E-03    -15.3837E-03    -17.8094E-03
            2095               1     82.8863E-03     81.1842E-03    -17.9549E-03    -20.5188E-03
            2096               1     118.509E-03     117.374E-03    -19.0202E-03    -22.2685E-03
            2097               1     161.991E-03     164.147E-03    -22.0302E-03    -24.2480E-03
            2098               1     197.399E-03     200.093E-03    -18.3236E-03    -15.1539E-03
            2099               1     234.224E-03     228.555E-03    -12.2478E-03    -9.41214E-03
            2100               1     56.9400E-03     56.8228E-03    -8.21891E-03    -6.05123E-03
            2101               1     23.2084E-03     26.1392E-03    -11.5363E-03    -12.1042E-03
            2102               1     40.1052E-03     38.1170E-03    -12.0955E-03    -14.4345E-03
            2103               1     75.3084E-03     71.6953E-03    -14.0045E-03    -17.5486E-03
            2104               1     116.390E-03     111.898E-03    -17.5734E-03    -20.6052E-03
            2105               1     153.291E-03     148.361E-03    -21.8123E-03    -26.3220E-03
            2106               1     205.357E-03     205.473E-03    -27.3261E-03    -29.9412E-03
            2107               1     242.603E-03     246.941E-03    -21.3060E-03    -15.7911E-03
            2108               1     55.3958E-03     57.2158E-03    -10.6622E-03    -8.01845E-03
            2109               1     13.1418E-03     14.7468E-03    -6.08533E-03    -6.67442E-03
            2110               1     31.4605E-03     28.5438E-03    -5.22635E-03    -6.59511E-03
            2111               1     69.3353E-03     62.6600E-03    -7.41570E-03    -8.63952E-03
            2112               1     106.544E-03     95.8079E-03    -12.4527E-03    -14.5323E-03
            2113               1     147.368E-03     132.202E-03    -17.8327E-03    -19.2617E-03
            2114               1     191.542E-03     171.031E-03    -31.5801E-03    -35.7170E-03
            2115               1     263.526E-03     236.317E-03    -45.2496E-03    -45.4045E-03
            2116               1     8.79936E-15     7.64427E-15    -1.34123E-15    -947.040E-18
            2117               1     3.06073E-15     3.08226E-15    -1.45669E-15    -1.59434E-15
            2118               1     4.09506E-15     4.11699E-15    -2.29036E-15    -2.28618E-15
            2119               1     4.25216E-15     4.72611E-15    -2.43874E-15    -2.70987E-15
            2120               1     3.44660E-15     2.92823E-15    -1.94607E-15    -1.67702E-15
            2121               1     4.47786E-15     4.36597E-15     1.13296E-15     1.05996E-15
            2122               1     5.72293E-15     6.08102E-15     3.25766E-15     3.46414E-15
            2123               1     1.74980E-15     1.19907E-15     361.416E-18     449.013E-18
            2124               1     457.435E-18     813.404E-18    -212.589E-18    -168.790E-18
            2125               1     2.61942E-15     2.11484E-15     1.48499E-15     1.18466E-15
            2126               1     1.57942E-15     1.25602E-15     839.926E-18     685.587E-18
            2127               1     1.05605E-15     1.21854E-15    -306.592E-18     306.592E-18
            2128               1     2.23597E-15     2.06653E-15     1.28849E-15     1.19047E-15
            2129               1     5.33405E-15     5.56937E-15    -2.00447E-15    -2.28604E-15
            2130               1     9.56212E-15     9.62816E-15    -5.51330E-15    -5.54667E-15
            2131               1     4.78013E-15     4.92019E-15    -1.54294E-15    -1.60343E-15
            2132               1     5.23899E-15     4.90766E-15    -2.94376E-15    -2.77691E-15
            2133               1     3.59118E-15     3.36836E-15    -1.94130E-15    -1.87248E-15
            2134               1     1.52880E-15     1.47573E-15    -737.729E-18    -787.785E-18
            2135               1     4.66726E-15     4.63926E-15    -2.68112E-15    -2.65818E-15
            2136               1     2.78244E-15     3.19066E-15    -1.59523E-15    -1.83717E-15
            2137               1     4.31396E-15     3.48488E-15    -2.41713E-15    -1.96872E-15
            2138               1     4.30033E-15     5.03280E-15    -2.45274E-15    -2.88656E-15
            2139               1     3.10451E-15     2.63677E-15    -1.73065E-15    -1.41572E-15
            3835               1     61.5669E-03     67.3962E-03     13.8250E-03     10.3202E-03
            3836               1     16.3066E-03     19.3173E-03     9.06600E-03     9.68895E-03
            3837               1     42.5520E-03     35.9121E-03     8.26575E-03     9.76160E-03
            3838               1     85.3720E-03     74.7373E-03     11.6216E-03     12.5072E-03
            3839               1     126.707E-03     112.576E-03     17.0466E-03     19.0641E-03
            3840               1     171.954E-03     153.657E-03     23.8455E-03     25.1786E-03
            3841               1     220.402E-03     196.587E-03     39.0889E-03     43.8773E-03
            3842               1     301.757E-03     269.738E-03     53.5736E-03     54.1969E-03
            3843               1     64.4334E-03     63.6176E-03     10.4569E-03     9.46971E-03
            3844               1     29.4014E-03     32.9290E-03     15.8101E-03     16.6633E-03
            3845               1     52.4407E-03     48.0700E-03     16.9917E-03     18.9204E-03
            3846               1     91.8654E-03     86.1111E-03     18.8521E-03     21.8724E-03
            3847               1     137.576E-03     131.542E-03     23.6223E-03     25.8246E-03
            3848               1     177.542E-03     172.117E-03     27.5105E-03     32.0079E-03
            3849               1     235.556E-03     236.385E-03     34.2455E-03     37.4611E-03
            3850               1     274.693E-03     280.749E-03     26.8235E-03     20.2509E-03
            3851               1     55.4495E-03     61.4084E-03     11.7991E-03     12.8334E-03
            3852               1     31.7688E-03     33.7848E-03     17.3055E-03     18.7179E-03
            3853               1     57.7003E-03     54.2259E-03     21.6722E-03     23.6389E-03
            3854               1     98.4264E-03     94.7734E-03     24.2634E-03     24.9494E-03
            3855               1     138.064E-03     137.540E-03     23.9211E-03     25.5447E-03
            3856               1     186.521E-03     191.121E-03     28.1234E-03     30.0490E-03
            3857               1     223.941E-03     229.563E-03     22.8405E-03     19.1069E-03
            3858               1     263.518E-03     257.443E-03     14.2374E-03     11.8644E-03
            3859               1     54.2582E-03     54.2225E-03     14.0193E-03     17.1164E-03
            3860               1     38.3711E-03     41.8973E-03     21.4616E-03     23.8237E-03
            3861               1     62.4396E-03     58.5142E-03     25.9494E-03     24.7361E-03
            3862               1     96.3844E-03     95.0549E-03     25.5812E-03     24.2732E-03
            3863               1     137.838E-03     140.254E-03     25.2747E-03     24.2998E-03
            3864               1     179.971E-03     186.272E-03     20.1450E-03     17.2174E-03
            3865               1     220.056E-03     222.952E-03     19.2069E-03     19.0795E-03
            3866               1     251.344E-03     253.350E-03     14.1032E-03     12.8511E-03
            3867               1     44.4457E-03     56.9293E-03     17.0009E-03     21.7194E-03
            3868               1     50.4216E-03     46.0314E-03     28.7467E-03     25.7872E-03
            3869               1     64.2283E-03     62.8743E-03     29.6091E-03     26.6349E-03
            3870               1     94.2557E-03     96.1519E-03     27.9990E-03     26.1976E-03
            3871               1     130.983E-03     133.589E-03     24.3616E-03     20.8920E-03
            3872               1     166.750E-03     169.766E-03     17.8722E-03     14.7028E-03
            3873               1     211.501E-03     219.199E-03     7.99675E-03     6.51023E-03
            3874               1     249.721E-03     247.671E-03     3.32647E-03     6.65872E-03
            3875               1     50.7782E-03     36.4704E-03     23.2903E-03     20.2826E-03
            3876               1     58.8841E-03     56.0199E-03     33.9015E-03     31.0107E-03
            3877               1     69.4552E-03     75.0404E-03     34.5143E-03     33.6606E-03
            3878               1     93.8015E-03     99.3777E-03     33.6908E-03     31.9709E-03
            3879               1     121.759E-03     125.613E-03     27.4859E-03     26.3410E-03
            3880               1     154.824E-03     154.982E-03     19.3986E-03     17.3902E-03
            3881               1     185.434E-03     180.943E-03     1.38974E-03    -638.552E-06
            3882               1     230.140E-03     227.483E-03    -22.3831E-03    -17.5048E-03
            3883               1     45.7199E-03     47.2392E-03     11.5968E-03     11.5180E-03
            3884               1     20.5781E-03     20.8971E-03     11.5968E-03     11.5180E-03
            3885               1     37.8895E-03     36.3435E-03     11.5968E-03     11.5180E-03
            3886               1     71.6015E-03     69.8857E-03     11.5968E-03     11.5180E-03
            3887               1     107.224E-03     105.481E-03     11.5968E-03     11.5180E-03
            3888               1     143.339E-03     141.589E-03     11.5968E-03     11.5180E-03
            3889               1     179.651E-03     177.898E-03     11.5968E-03     11.5180E-03
            3890               1     216.059E-03     214.305E-03     11.5968E-03     11.5180E-03
            3891               1     51.4534E-03     38.5030E-03    -11.2957E-03    -11.1434E-03
            3892               1     40.8137E-03     38.1805E-03    -21.9897E-03    -21.9275E-03
            3893               1     46.9643E-03     57.0662E-03    -22.3865E-03    -22.5116E-03
            3894               1     76.3511E-03     89.6765E-03    -23.1412E-03    -23.0071E-03
            3895               1     111.588E-03     126.071E-03    -22.7558E-03    -22.8372E-03
            3896               1     147.429E-03     162.249E-03    -21.0368E-03    -21.0421E-03
            3897               1     185.115E-03     200.147E-03    -16.3571E-03    -16.1663E-03
            3898               1     217.130E-03     231.511E-03     11.1171E-03     10.6519E-03
            3899               1     47.7379E-03     64.3945E-03    -14.3460E-03    -14.8500E-03
            3900               1     22.2618E-03     25.1771E-03    -12.2958E-03    -12.1447E-03
            3901               1     45.8611E-03     28.7861E-03    -9.41924E-03    -9.41094E-03
            3902               1     84.0224E-03     65.4701E-03    -9.36675E-03    -9.39884E-03
            3903               1     122.462E-03     103.621E-03    -9.65043E-03    -9.65641E-03
            3904               1     161.835E-03     142.967E-03    -10.9197E-03    -10.7708E-03
            3905               1     199.786E-03     181.017E-03    -17.6406E-03    -18.0469E-03
            3906               1     250.681E-03     232.245E-03    -37.4023E-03    -36.5312E-03
            3907               1     48.5803E-03     33.8454E-03    -17.6419E-03    -15.7476E-03
            3908               1     50.6854E-03     47.4805E-03    -29.0551E-03    -26.5343E-03
            3909               1     62.0418E-03     67.2342E-03    -28.9935E-03    -28.4531E-03
            3910               1     92.8134E-03     98.6130E-03    -29.3896E-03    -28.5127E-03
            3911               1     123.452E-03     127.438E-03    -21.9671E-03    -20.7566E-03
            3912               1     160.799E-03     161.219E-03    -15.3143E-03    -13.6132E-03
            3913               1     195.575E-03     190.796E-03     3.55074E-03     6.47313E-03
            3914               1     247.936E-03     241.731E-03     27.6852E-03     23.8741E-03
            3915               1     47.6334E-03     57.6144E-03    -13.7868E-03    -17.2411E-03
            3916               1     39.0830E-03     36.4675E-03    -22.0472E-03    -19.9716E-03
            3917               1     57.0265E-03     56.3111E-03    -23.2202E-03    -21.1841E-03
            3918               1     90.8317E-03     91.5648E-03    -21.3644E-03    -20.4797E-03
            3919               1     134.543E-03     137.717E-03    -19.8982E-03    -18.3953E-03
            3920               1     172.720E-03     176.461E-03    -12.2500E-03    -8.11808E-03
            3921               1     220.799E-03     227.877E-03    -4.24264E-03    -2.25929E-03
            3922               1     259.576E-03     261.232E-03    -2.47902E-03    -4.90695E-03
            3923               1     54.3463E-03     56.2415E-03    -8.95672E-03    -11.4513E-03
            3924               1     27.7587E-03     30.7437E-03    -14.6832E-03    -16.4882E-03
            3925               1     53.0329E-03     48.1906E-03    -18.4470E-03    -18.1591E-03
            3926               1     94.7791E-03     92.8199E-03    -18.1723E-03    -17.9101E-03
            3927               1     135.363E-03     134.526E-03    -17.8860E-03    -18.1731E-03
            3928               1     186.473E-03     193.410E-03    -18.1555E-03    -18.3962E-03
            3929               1     227.228E-03     235.070E-03    -16.4292E-03    -14.4246E-03
            3930               1     261.465E-03     259.487E-03    -11.0481E-03    -8.99112E-03
            3931               1     58.6212E-03     61.2024E-03    -7.43423E-03    -6.51354E-03
            3932               1     21.6327E-03     25.4083E-03    -11.1295E-03    -12.4110E-03
            3933               1     50.1194E-03     44.6673E-03    -11.3936E-03    -13.4293E-03
            3934               1     90.5551E-03     84.1101E-03    -14.0695E-03    -15.2907E-03
            3935               1     137.429E-03     133.040E-03    -15.8711E-03    -17.0288E-03
            3936               1     179.573E-03     175.952E-03    -22.2822E-03    -26.4504E-03
            3937               1     234.064E-03     237.177E-03    -28.0881E-03    -30.8141E-03
            3938               1     273.522E-03     279.215E-03    -20.8795E-03    -15.9659E-03
            3939               1     55.0298E-03     59.3671E-03    -9.03134E-03    -7.02542E-03
            3940               1     6.58969E-03     10.1258E-03    -3.32989E-03    -4.35945E-03
            3941               1     43.2433E-03     35.8163E-03    -3.32706E-03    -4.38141E-03
            3942               1     87.0057E-03     76.9341E-03    -4.82413E-03    -5.50968E-03
            3943               1     128.161E-03     115.670E-03    -12.0495E-03    -13.4424E-03
            3944               1     172.045E-03     156.466E-03    -17.5223E-03    -18.7197E-03
            3945               1     219.251E-03     198.263E-03    -34.3740E-03    -39.0556E-03
            3946               1     296.335E-03     268.228E-03    -50.9369E-03    -50.5167E-03
            5375               1     4.70743E-15     4.62442E-15     1.37676E-15     1.38823E-15
            5376               1     4.36453E-15     4.44179E-15     1.04410E-15     1.05348E-15
            5377               1     4.42981E-15     4.65655E-15     1.02406E-15     978.176E-18
            5378               1     5.64840E-15     5.89702E-15     2.30726E-15     2.36462E-15
            5379               1     3.90426E-15     3.86902E-15    -1.45199E-15    -1.59903E-15
            5380               1     5.92011E-15     5.56664E-15    -2.45505E-15    -2.31218E-15
            5381               1     4.65600E-15     4.72687E-15    -1.36551E-15    -1.49482E-15
            5382               1     4.78148E-15     5.23128E-15    -1.68075E-15    -1.75166E-15
            5383               1     1.62653E-15     1.35677E-15    -936.314E-18    -779.889E-18
            5384               1     3.31677E-15     3.46594E-15    -1.91233E-15    -1.99680E-15
            5385               1     2.43888E-15     2.27741E-15    -1.34197E-15    -1.20849E-15
            5386               1     2.23471E-15     2.15116E-15     491.323E-18     462.123E-18
            5387               1     2.20760E-15     2.18050E-15     267.784E-18     304.283E-18
            5388               1     701.145E-18     715.337E-18    -257.877E-18    -314.190E-18
            5389               1     1.42533E-15     1.06683E-15     673.744E-18     470.391E-18
            5390               1     2.45861E-15     2.77794E-15     854.898E-18     1.05199E-15
            5391               1     3.64712E-15     3.31363E-15     2.10391E-15     1.90056E-15
            5392               1     3.36002E-15     3.61842E-15     1.92976E-15     2.07471E-15
            5393               1     2.00548E-15     2.00855E-15     38.2868E-18    -109.795E-18
            5394               1     4.73575E-15     4.75115E-15    -1.44343E-15    -1.51225E-15
            5395               1     2.07238E-15     2.00584E-15     151.583E-18     229.795E-18
            5396               1     4.34925E-15     4.22277E-15     854.973E-18     861.230E-18
            5397               1     4.56936E-15     4.64563E-15     1.31292E-15     1.35672E-15
            5398               1     3.60433E-15     3.67286E-15     2.07777E-15     2.11739E-15
            5399               1     2.14612E-15     1.98950E-15    -201.564E-18    -370.503E-18
            5400               1     873.672E-18     785.546E-18    -462.272E-18    -443.501E-18
            5401               1     2.13453E-15     2.27919E-15    -509.125E-18    -587.337E-18
            5402               1     866.592E-18     980.111E-18     485.289E-18     563.501E-18
            5403               1     4.20924E-15     4.00997E-15     611.174E-18     532.961E-18
            5404               1     3.12483E-15     3.00160E-15    -1.36350E-15    -1.30615E-15
            5405               1     2.54753E-15     2.73718E-15    -1.47076E-15    -1.58026E-15
            5406               1     1.78730E-15     1.58592E-15    -898.846E-18    -626.667E-18
            5407               1     2.61975E-15     2.84984E-15    -1.04596E-15    -956.276E-18
            5408               1     1.04138E-15     982.724E-18     475.531E-18     525.587E-18
            5409               1     278.354E-18     427.477E-18    -78.2868E-18    -231.583E-18
            5410               1     1.56411E-15     1.49254E-15     750.243E-18     775.271E-18
            5411               1     2.00420E-15     2.14053E-15     301.155E-18     270.913E-18
            5412               1     2.51933E-15     2.28318E-15    -912.924E-18    -612.589E-18
            5413               1     2.15265E-15     1.84502E-15     1.23747E-15     1.05080E-15
            5414               1     3.42929E-15     3.18580E-15     1.97728E-15     1.83650E-15
            5415               1     4.13902E-15     3.32740E-15     2.37207E-15     1.91844E-15
            5416               1     3.97055E-15     4.37769E-15     2.29013E-15     2.52477E-15
            5417               1     2.99947E-15     2.74263E-15     1.73013E-15     1.58309E-15
            5418               1     2.26499E-15     2.59112E-15     1.27769E-15     1.48730E-15
            5419               1     3.72000E-15     3.55031E-15     2.14659E-15     2.04857E-15
            5420               1     1.55154E-15     1.78278E-15     799.703E-18     916.500E-18
            5421               1     3.09475E-15     2.93802E-15     1.76939E-15     1.66302E-15
            5422               1     3.42899E-15     3.91461E-15     1.96253E-15     2.23263E-15
            5423               1     3.78522E-15     3.66535E-15     2.17706E-15     2.11345E-15
            5424               1     3.05517E-15     3.26580E-15     1.74846E-15     1.87464E-15
            5425               1     4.28233E-15     4.15929E-15     2.46726E-15     2.39531E-15
            5426               1     2.46461E-15     2.49886E-15     1.42026E-15     1.44008E-15
            5427               1     5.92296E-15     6.01420E-15     3.40894E-15     3.45587E-15
            5428               1     4.31059E-15     4.33665E-15     2.47218E-15     2.48574E-15
            5429               1     2.67861E-15     2.63445E-15     1.53855E-15     1.51248E-15
            5430               1     3.72344E-15     3.62016E-15     2.13356E-15     2.06160E-15
            6229               1     64.4896E-03     69.0593E-03     16.8050E-03     13.4382E-03
            6230               1     25.7888E-03     27.8294E-03     13.1754E-03     13.1788E-03
            6231               1     31.4103E-03     29.0947E-03     11.9033E-03     13.0878E-03
            6232               1     64.6603E-03     57.7016E-03     13.6910E-03     14.6934E-03
            6233               1     99.8172E-03     89.1504E-03     17.9981E-03     20.0870E-03
            6234               1     139.202E-03     123.734E-03     22.3514E-03     23.7186E-03
            6235               1     183.352E-03     162.518E-03     34.6921E-03     39.1609E-03
            6236               1     256.372E-03     227.173E-03     46.4064E-03     47.5253E-03
            6237               1     64.4605E-03     62.7477E-03     12.8612E-03     10.9599E-03
            6238               1     36.2961E-03     38.5119E-03     18.5382E-03     18.3237E-03
            6239               1     42.4959E-03     41.4240E-03     18.7554E-03     20.5372E-03
            6240               1     71.4184E-03     68.6627E-03     20.3562E-03     23.7498E-03
            6241               1     109.211E-03     104.559E-03     23.1199E-03     26.0484E-03
            6242               1     144.241E-03     138.964E-03     26.5784E-03     31.2898E-03
            6243               1     194.960E-03     194.388E-03     31.1204E-03     34.3238E-03
            6244               1     230.936E-03     235.811E-03     23.8918E-03     18.8733E-03
            6245               1     55.9727E-03     58.5140E-03     12.9190E-03     12.4881E-03
            6246               1     34.4404E-03     35.6145E-03     18.1152E-03     18.6849E-03
            6247               1     47.1118E-03     47.3979E-03     22.1647E-03     24.3885E-03
            6248               1     79.2262E-03     78.2704E-03     24.1513E-03     26.8254E-03
            6249               1     111.037E-03     109.928E-03     25.1285E-03     28.6713E-03
            6250               1     151.682E-03     153.085E-03     27.1605E-03     29.6691E-03
            6251               1     185.498E-03     187.454E-03     22.7711E-03     19.7609E-03
            6252               1     221.787E-03     215.152E-03     15.3031E-03     12.4799E-03
            6253               1     53.0851E-03     52.6332E-03     14.5903E-03     14.4557E-03
            6254               1     34.5787E-03     36.8805E-03     19.1639E-03     20.3608E-03
            6255               1     50.6044E-03     51.4367E-03     22.9840E-03     24.8005E-03
            6256               1     80.2982E-03     79.8482E-03     25.0748E-03     27.3145E-03
            6257               1     115.712E-03     116.322E-03     26.6816E-03     28.5054E-03
            6258               1     147.404E-03     147.863E-03     24.2279E-03     23.5682E-03
            6259               1     181.517E-03     178.704E-03     20.6660E-03     19.3064E-03
            6260               1     213.381E-03     211.595E-03     15.0611E-03     12.8400E-03
            6261               1     47.6682E-03     49.1286E-03     14.4005E-03     15.0789E-03
            6262               1     35.2752E-03     37.0041E-03     19.9375E-03     21.1557E-03
            6263               1     52.6802E-03     52.7034E-03     23.0849E-03     24.5922E-03
            6264               1     83.1624E-03     82.9899E-03     26.0019E-03     26.9838E-03
            6265               1     113.716E-03     113.273E-03     25.3815E-03     25.4277E-03
            6266               1     145.819E-03     144.536E-03     24.2368E-03     23.6099E-03
            6267               1     175.777E-03     174.987E-03     19.8375E-03     18.3300E-03
            6268               1     207.451E-03     202.553E-03     12.4519E-03     11.3166E-03
            6269               1     44.1916E-03     44.4993E-03     14.8430E-03     16.2528E-03
            6270               1     34.7981E-03     36.5779E-03     19.7082E-03     21.0282E-03
            6271               1     55.0169E-03     54.5452E-03     24.0197E-03     24.5341E-03
            6272               1     83.1058E-03     81.5179E-03     25.0603E-03     24.8081E-03
            6273               1     113.026E-03     111.913E-03     25.9290E-03     25.0876E-03
            6274               1     141.803E-03     141.562E-03     23.1450E-03     21.8666E-03
            6275               1     171.115E-03     168.762E-03     18.8609E-03     18.0206E-03
            6276               1     198.525E-03     196.455E-03     12.8006E-03     12.0477E-03
            6277               1     39.1629E-03     42.4310E-03     15.0726E-03     16.7567E-03
            6278               1     36.8385E-03     37.8298E-03     20.7838E-03     21.7335E-03
            6279               1     56.7035E-03     54.1957E-03     23.8815E-03     23.7239E-03
            6280               1     82.3685E-03     79.6705E-03     26.0646E-03     24.0949E-03
            6281               1     110.046E-03     109.698E-03     24.2656E-03     22.1525E-03
            6282               1     138.377E-03     138.204E-03     22.8410E-03     21.6761E-03
            6283               1     164.238E-03     164.468E-03     18.2922E-03     17.7252E-03
            6284               1     191.953E-03     188.290E-03     10.7562E-03     11.3530E-03
            6285               1     37.2157E-03     38.5286E-03     15.0877E-03     18.4249E-03
            6286               1     40.1669E-03     40.5723E-03     22.0578E-03     23.2477E-03
            6287               1     58.8619E-03     54.1708E-03     26.6449E-03     23.7389E-03
            6288               1     79.7444E-03     77.7141E-03     25.7400E-03     22.2678E-03
            6289               1     104.467E-03     104.292E-03     23.6656E-03     20.9859E-03
            6290               1     133.110E-03     135.329E-03     19.8557E-03     17.8745E-03
            6291               1     159.756E-03     160.533E-03     16.9574E-03     17.7092E-03
            6292               1     180.636E-03     181.235E-03     10.7672E-03     11.6301E-03
            6293               1     32.4346E-03     41.3562E-03     17.0247E-03     21.0217E-03
            6294               1     49.2124E-03     43.6480E-03     27.8598E-03     24.0065E-03
            6295               1     58.7298E-03     56.0393E-03     28.3933E-03     24.2311E-03
            6296               1     75.8455E-03     75.9056E-03     26.3358E-03     23.3889E-03
            6297               1     99.2623E-03     99.9946E-03     23.6587E-03     20.2836E-03
            6298               1     121.962E-03     123.400E-03     17.4476E-03     15.4002E-03
            6299               1     151.388E-03     155.711E-03     9.99898E-03     10.3527E-03
            6300               1     176.819E-03     174.646E-03     5.32905E-03     8.60949E-03
            6301               1     41.9196E-03     36.7022E-03     22.9639E-03     19.5373E-03
            6302               1     53.7130E-03     52.4496E-03     30.9880E-03     27.7619E-03
            6303               1     59.7612E-03     64.1428E-03     30.2567E-03     28.9584E-03
            6304               1     75.5940E-03     78.9660E-03     30.0172E-03     28.0535E-03
            6305               1     92.1540E-03     94.0460E-03     24.6650E-03     23.5868E-03
            6306               1     113.292E-03     112.530E-03     18.9415E-03     17.6452E-03
            6307               1     131.946E-03     129.276E-03     5.44312E-03     4.80496E-03
            6308               1     158.419E-03     158.977E-03    -12.8636E-03    -8.54497E-03
            6309               1     55.2090E-03     61.6119E-03     17.8315E-03     14.4548E-03
            6310               1     29.7992E-03     31.7331E-03     16.1441E-03     15.6093E-03
            6311               1     29.9256E-03     28.5556E-03     14.9622E-03     15.7329E-03
            6312               1     49.8776E-03     43.9733E-03     16.4121E-03     16.9201E-03
            6313               1     73.3121E-03     65.0263E-03     19.1092E-03     20.6703E-03
            6314               1     100.691E-03     88.4417E-03     21.7831E-03     22.7064E-03
            6315               1     132.893E-03     116.921E-03     29.8172E-03     33.4349E-03
            6316               1     187.731E-03     163.991E-03     36.5280E-03     38.1803E-03
            6317               1     54.0394E-03     51.4920E-03     13.5551E-03     12.6368E-03
            6318               1     37.9512E-03     38.8717E-03     20.0918E-03     19.2708E-03
            6319               1     39.3621E-03     38.4161E-03     20.3617E-03     21.1528E-03
            6320               1     55.7090E-03     54.0102E-03     21.3528E-03     23.6896E-03
            6321               1     80.3863E-03     76.5323E-03     23.2097E-03     25.0876E-03
            6322               1     103.758E-03     99.7638E-03     25.0566E-03     28.6415E-03
            6323               1     139.547E-03     138.776E-03     27.6002E-03     30.3286E-03
            6324               1     163.912E-03     168.258E-03     20.7980E-03     17.1627E-03
            6325               1     44.8328E-03     47.8406E-03     13.2804E-03     13.4775E-03
            6326               1     35.0020E-03     36.1784E-03     18.7723E-03     19.4454E-03
            6327               1     43.0574E-03     43.7559E-03     22.9114E-03     24.2802E-03
            6328               1     61.7916E-03     61.1546E-03     24.4161E-03     26.0658E-03
            6329               1     81.4580E-03     80.8228E-03     24.8847E-03     27.3904E-03
            6330               1     108.498E-03     109.307E-03     25.9430E-03     27.7033E-03
            6331               1     130.461E-03     131.691E-03     21.8022E-03     19.4189E-03
            6332               1     155.607E-03     149.899E-03     14.5471E-03     12.3383E-03
            6333               1     42.5572E-03     42.1880E-03     14.6707E-03     14.8392E-03
            6334               1     34.5922E-03     36.9101E-03     19.4339E-03     20.5896E-03
            6335               1     44.6014E-03     46.1684E-03     23.1336E-03     24.6211E-03
            6336               1     62.5980E-03     62.7710E-03     25.2398E-03     26.7779E-03
            6337               1     84.7232E-03     85.1488E-03     26.2790E-03     27.4466E-03
            6338               1     104.295E-03     104.349E-03     23.9967E-03     23.2529E-03
            6339               1     126.410E-03     123.834E-03     20.2704E-03     19.0429E-03
            6340               1     146.761E-03     145.783E-03     14.3436E-03     12.5921E-03
            6341               1     37.4827E-03     39.2106E-03     14.4742E-03     15.2745E-03
            6342               1     34.8673E-03     36.8107E-03     19.8993E-03     21.1345E-03
            6343               1     46.1563E-03     47.1135E-03     23.2407E-03     24.5825E-03
            6344               1     64.5099E-03     64.8512E-03     25.8449E-03     26.6212E-03
            6345               1     82.8357E-03     82.4631E-03     25.4727E-03     25.3710E-03
            6346               1     102.548E-03     101.202E-03     24.0548E-03     23.3193E-03
            6347               1     120.576E-03     120.011E-03     19.6747E-03     18.2785E-03
            6348               1     140.737E-03     136.886E-03     12.5101E-03     11.4385E-03
            6349               1     34.5260E-03     35.3344E-03     14.7692E-03     16.0571E-03
            6350               1     34.5462E-03     36.5256E-03     19.7464E-03     21.0495E-03
            6351               1     47.9392E-03     48.4909E-03     23.8639E-03     24.5437E-03
            6352               1     64.4612E-03     63.5944E-03     25.2172E-03     25.1707E-03
            6353               1     82.2045E-03     81.2154E-03     25.8377E-03     25.1443E-03
            6354               1     98.7225E-03     98.3584E-03     23.3270E-03     22.1572E-03
            6355               1     116.019E-03     113.913E-03     19.0236E-03     18.0722E-03
            6356               1     131.875E-03     130.827E-03     12.7425E-03     11.9259E-03
            6357               1     30.9017E-03     33.6637E-03     14.9922E-03     16.3732E-03
            6358               1     36.1138E-03     37.5451E-03     20.5138E-03     21.5047E-03
            6359               1     49.2504E-03     48.2267E-03     23.7319E-03     23.9033E-03
            6360               1     64.3662E-03     62.6203E-03     25.8996E-03     24.6315E-03
            6361               1     79.5313E-03     79.0704E-03     24.6683E-03     23.2113E-03
            6362               1     95.6948E-03     95.1134E-03     23.0721E-03     21.9915E-03
            6363               1     109.530E-03     109.899E-03     18.6878E-03     17.9888E-03
            6364               1     125.493E-03     122.637E-03     11.4737E-03     11.6008E-03
            6365               1     29.0637E-03     31.5556E-03     14.7262E-03     17.4354E-03
            6366               1     38.8583E-03     39.5056E-03     21.4007E-03     22.4872E-03
            6367               1     51.8080E-03     48.7154E-03     25.8982E-03     23.8472E-03
            6368               1     62.2343E-03     60.6797E-03     25.4753E-03     23.0274E-03
            6369               1     75.4417E-03     75.6803E-03     23.9094E-03     22.2668E-03
            6370               1     90.8068E-03     92.3795E-03     21.0732E-03     19.8402E-03
            6371               1     105.332E-03     105.342E-03     17.9264E-03     18.0512E-03
            6372               1     114.775E-03     116.219E-03     11.5232E-03     11.7718E-03
            6373               1     29.1803E-03     34.1584E-03     16.3308E-03     19.3447E-03
            6374               1     46.6539E-03     42.3360E-03     26.3062E-03     23.0593E-03
            6375               1     51.4286E-03     49.2487E-03     26.7869E-03     23.6154E-03
            6376               1     59.4821E-03     60.1263E-03     25.3392E-03     23.4491E-03
            6377               1     71.2691E-03     72.3515E-03     23.5689E-03     21.2444E-03
            6378               1     82.5334E-03     85.0332E-03     18.9694E-03     18.0485E-03
            6379               1     97.0189E-03     101.152E-03     13.5192E-03     14.3479E-03
            6380               1     110.254E-03     107.581E-03     8.42286E-03     10.3201E-03
            6381               1     38.0384E-03     38.9180E-03     21.9374E-03     18.5208E-03
            6382               1     48.6622E-03     48.2146E-03     28.0192E-03     25.3314E-03
            6383               1     51.1736E-03     54.7171E-03     27.1978E-03     26.3133E-03
            6384               1     59.2461E-03     62.2181E-03     27.2962E-03     25.8268E-03
            6385               1     66.2866E-03     69.4718E-03     23.5538E-03     23.0035E-03
            6386               1     76.0082E-03     77.8282E-03     19.5098E-03     18.6574E-03
            6387               1     82.7940E-03     84.8755E-03     10.3179E-03     10.5310E-03
            6388               1     90.3118E-03     96.6287E-03    -2.98524E-03     800.094E-06
            6389               1     48.6583E-03     56.4035E-03     19.2299E-03     15.8550E-03
            6390               1     35.0422E-03     36.8313E-03     19.4027E-03     18.2854E-03
            6391               1     31.8147E-03     32.0285E-03     18.1448E-03     18.4388E-03
            6392               1     39.0561E-03     35.5072E-03     19.1240E-03     19.1196E-03
            6393               1     49.4649E-03     44.7675E-03     20.1157E-03     21.1302E-03
            6394               1     63.8186E-03     55.6489E-03     21.0023E-03     21.5158E-03
            6395               1     83.3521E-03     73.0652E-03     24.7375E-03     27.5299E-03
            6396               1     119.356E-03     101.553E-03     26.4893E-03     28.6569E-03
            6397               1     46.0768E-03     43.2200E-03     14.4975E-03     14.5850E-03
            6398               1     40.9096E-03     40.4820E-03     21.9335E-03     20.4078E-03
            6399               1     38.8373E-03     37.8642E-03     22.1442E-03     21.8488E-03
            6400               1     43.6312E-03     43.2335E-03     22.4220E-03     23.5969E-03
            6401               1     54.3688E-03     51.8389E-03     23.1840E-03     24.0471E-03
            6402               1     65.2903E-03     63.2639E-03     23.3964E-03     25.8843E-03
            6403               1     85.3260E-03     84.8722E-03     23.8406E-03     26.1703E-03
            6404               1     97.7226E-03     101.439E-03     17.5312E-03     15.3627E-03
            6405               1     36.4872E-03     40.0753E-03     13.9243E-03     14.7929E-03
            6406               1     36.8216E-03     37.6877E-03     19.7167E-03     20.3650E-03
            6407               1     41.6074E-03     41.9893E-03     23.8727E-03     24.2268E-03
            6408               1     47.8194E-03     47.4913E-03     24.6825E-03     25.3086E-03
            6409               1     55.1324E-03     55.1726E-03     24.6179E-03     26.0391E-03
            6410               1     67.5748E-03     68.1385E-03     24.4736E-03     25.6081E-03
            6411               1     77.1087E-03     77.4520E-03     20.6272E-03     18.9917E-03
            6412               1     90.3126E-03     85.6087E-03     13.5751E-03     12.0704E-03
            6413               1     35.3270E-03     35.0726E-03     15.2918E-03     15.4921E-03
            6414               1     35.6712E-03     37.6645E-03     19.9980E-03     20.9864E-03
            6415               1     41.0983E-03     42.8702E-03     23.4392E-03     24.5518E-03
            6416               1     48.6684E-03     49.1882E-03     25.5221E-03     26.2325E-03
            6417               1     56.9600E-03     57.4642E-03     25.6482E-03     26.3256E-03
            6418               1     64.1101E-03     63.4873E-03     23.6350E-03     22.8581E-03
            6419               1     72.9525E-03     70.8729E-03     19.5582E-03     18.6123E-03
            6420               1     81.3725E-03     80.9521E-03     13.3602E-03     12.3367E-03
            6421               1     31.0200E-03     32.7906E-03     14.9198E-03     15.8898E-03
            6422               1     35.5501E-03     37.2397E-03     20.3150E-03     21.3277E-03
            6423               1     41.8112E-03     43.3640E-03     23.6166E-03     24.6373E-03
            6424               1     49.2088E-03     50.3001E-03     25.5437E-03     26.3443E-03
            6425               1     55.9595E-03     55.4109E-03     25.6107E-03     25.3244E-03
            6426               1     62.0536E-03     60.9612E-03     23.4887E-03     22.8841E-03
            6427               1     67.8632E-03     66.8675E-03     19.2759E-03     18.1632E-03
            6428               1     75.0933E-03     72.5844E-03     12.3735E-03     11.3731E-03
            6429               1     29.5987E-03     30.2333E-03     15.6513E-03     16.0488E-03
            6430               1     34.6687E-03     36.6897E-03     19.9853E-03     21.1670E-03
            6431               1     42.5338E-03     44.1986E-03     23.6829E-03     24.7754E-03
            6432               1     49.6003E-03     49.5562E-03     25.5890E-03     25.7099E-03
            6433               1     55.0200E-03     54.6586E-03     25.4036E-03     25.2855E-03
            6434               1     59.8458E-03     58.3448E-03     23.5419E-03     22.4892E-03
            6435               1     63.0172E-03     61.4771E-03     18.8644E-03     17.8392E-03
            6436               1     67.4300E-03     66.3318E-03     12.3168E-03     11.8355E-03
            6437               1     26.9276E-03     28.7788E-03     14.9398E-03     16.2060E-03
            6438               1     35.5500E-03     37.1498E-03     20.3404E-03     21.3630E-03
            6439               1     43.0818E-03     43.8823E-03     23.6356E-03     24.2143E-03
            6440               1     49.5570E-03     49.5697E-03     25.4012E-03     25.5829E-03
            6441               1     54.6016E-03     53.2959E-03     25.5480E-03     24.7815E-03
            6442               1     56.7473E-03     55.6829E-03     23.1483E-03     22.2857E-03
            6443               1     58.9934E-03     57.4248E-03     19.0363E-03     18.1589E-03
            6444               1     60.3460E-03     59.4281E-03     12.2968E-03     11.4797E-03
            6445               1     27.1387E-03     28.4502E-03     15.4692E-03     16.3149E-03
            6446               1     35.8426E-03     37.4020E-03     20.2378E-03     21.1478E-03
            6447               1     44.0909E-03     44.3154E-03     23.7832E-03     24.1817E-03
            6448               1     49.8362E-03     48.7398E-03     25.5929E-03     24.8614E-03
            6449               1     52.4896E-03     51.8912E-03     24.9503E-03     24.2706E-03
            6450               1     54.9306E-03     53.6013E-03     23.1818E-03     22.1927E-03
            6451               1     53.7703E-03     53.5692E-03     18.7756E-03     18.0745E-03
            6452               1     53.8778E-03     52.3387E-03     12.0665E-03     11.9286E-03
            6453               1     25.5808E-03     29.5614E-03     14.4416E-03     16.5424E-03
            6454               1     38.5222E-03     39.0492E-03     20.9630E-03     21.8057E-03
            6455               1     46.1843E-03     44.3870E-03     25.0299E-03     23.7285E-03
            6456               1     48.2387E-03     47.1010E-03     25.2238E-03     23.8251E-03
            6457               1     50.0997E-03     50.5343E-03     24.0467E-03     23.4486E-03
            6458               1     51.1024E-03     51.8244E-03     22.1889E-03     21.8615E-03
            6459               1     50.7592E-03     49.6849E-03     18.8495E-03     18.3712E-03
            6460               1     44.9772E-03     46.6754E-03     12.1537E-03     11.7348E-03
            6461               1     32.1418E-03     32.3485E-03     15.8048E-03     17.7807E-03
            6462               1     44.4768E-03     41.5208E-03     24.6482E-03     21.9677E-03
            6463               1     45.3922E-03     43.6462E-03     25.2048E-03     22.9770E-03
            6464               1     45.8729E-03     46.7128E-03     24.1505E-03     23.2997E-03
            6465               1     47.0291E-03     47.8153E-03     23.3760E-03     22.2076E-03
            6466               1     46.2555E-03     49.5509E-03     20.4802E-03     20.8028E-03
            6467               1     44.1686E-03     48.1884E-03     17.1839E-03     18.5762E-03
            6468               1     40.5420E-03     37.6671E-03     11.7039E-03     12.1028E-03
            6469               1     38.5326E-03     44.7500E-03     20.9869E-03     17.5811E-03
            6470               1     43.8357E-03     44.5180E-03     25.0355E-03     22.8612E-03
            6471               1     42.7167E-03     45.3482E-03     23.7710E-03     23.2803E-03
            6472               1     44.8329E-03     46.6019E-03     24.2945E-03     23.3338E-03
            6473               1     43.5637E-03     46.9067E-03     22.1517E-03     22.1565E-03
            6474               1     42.1376E-03     45.2550E-03     19.9387E-03     19.6025E-03
            6475               1     36.8928E-03     43.3197E-03     15.4794E-03     16.6367E-03
            6476               1     21.7188E-03     34.4076E-03     7.73017E-03     10.8770E-03
            6477               1     31.8767E-03     36.6370E-03     17.7258E-03     14.9318E-03
            6478               1     36.4216E-03     36.4305E-03     20.7993E-03     20.3702E-03
            6479               1     37.1045E-03     37.5985E-03     20.8169E-03     21.4921E-03
            6480               1     40.3175E-03     38.0931E-03     22.2632E-03     21.9320E-03
            6481               1     40.5128E-03     39.0105E-03     22.1529E-03     22.5009E-03
            6482               1     41.3409E-03     37.2764E-03     22.1402E-03     21.5000E-03
            6483               1     42.0604E-03     39.3767E-03     21.6648E-03     22.6180E-03
            6484               1     47.2255E-03     38.5078E-03     17.2882E-03     19.6059E-03
            6485               1     24.9550E-03     28.4202E-03     12.9553E-03     16.2032E-03
            6486               1     37.7945E-03     38.8117E-03     21.8032E-03     22.1848E-03
            6487               1     40.8671E-03     39.5629E-03     23.3311E-03     22.8409E-03
            6488               1     39.5978E-03     39.5804E-03     22.6098E-03     22.8363E-03
            6489               1     40.7369E-03     39.5939E-03     22.9106E-03     22.6889E-03
            6490               1     41.1228E-03     41.1711E-03     22.9747E-03     23.6239E-03
            6491               1     42.4610E-03     40.3404E-03     22.8236E-03     22.4908E-03
            6492               1     32.5519E-03     31.9265E-03     16.6768E-03     13.6097E-03
            6493               1     23.5456E-03     28.5750E-03     13.1359E-03     16.4865E-03
            6494               1     38.3600E-03     39.0170E-03     22.1230E-03     22.3074E-03
            6495               1     41.1081E-03     40.2765E-03     23.6930E-03     23.1606E-03
            6496               1     39.7944E-03     40.6754E-03     22.9240E-03     23.1441E-03
            6497               1     40.0882E-03     40.2888E-03     23.0411E-03     22.8054E-03
            6498               1     40.3675E-03     42.6354E-03     22.9471E-03     23.4519E-03
            6499               1     38.6029E-03     38.5908E-03     21.7614E-03     21.0269E-03
            6500               1     29.4576E-03     22.9837E-03     15.7162E-03     12.9463E-03
            6501               1     31.5610E-03     34.3826E-03     18.0686E-03     15.2704E-03
            6502               1     38.3849E-03     38.1037E-03     21.9282E-03     21.3405E-03
            6503               1     38.5194E-03     40.3624E-03     22.0662E-03     22.6799E-03
            6504               1     40.6952E-03     41.4193E-03     23.4038E-03     23.0769E-03
            6505               1     39.6880E-03     42.5180E-03     22.9089E-03     23.2368E-03
            6506               1     38.2004E-03     39.5959E-03     22.0396E-03     21.2424E-03
            6507               1     34.8602E-03     38.7278E-03     20.0127E-03     20.6075E-03
            6508               1     26.1370E-03     28.6133E-03     13.6567E-03     16.1142E-03


  Minimum                            278.354E-18     427.477E-18    -50.9369E-03    -50.5167E-03
      At Element                            5409            5409            3946            3946
          Int Pt                               1               1               1               1

  Maximum                            301.757E-03     280.749E-03     53.5736E-03     54.1969E-03
      At Element                            3842            3850            3842            3842
          Int Pt                               1               1               1               1

           Total                         60.1441         59.5337     25.5870E-03     25.0025E-03


********************************************************************************
Field Output Report, written Mon Feb 10 10:20:13 2020

Source 1
---------

   ODB: C:/Scratch/B737.odb
   Step: Jam_Bent
   Frame: Increment      1: Step Time =    1.000

Loc 1 : Integration point values at shell < ALUMINIUM > < 5 section points > from source 1 : SNEG, (fraction = -1.0)
Loc 2 : Integration point values at shell < ALUMINIUM > < 5 section points > from source 1 : SPOS, (fraction = 1.0)

Output sorted by column "Element Label".

Field Output reported at integration points for region: B737-1.Region_1

   Element Label             Int         S.Mises         S.Mises           S.S12           S.S12
                              Pt          @Loc 1          @Loc 2          @Loc 1          @Loc 2
-------------------------------------------------------------------------------------------------
               1               1     1.17386E-03     1.17080E-03    -677.523E-06    -675.461E-06
               2               1     1.21351E-03     1.17511E-03    -700.218E-06    -678.258E-06
               3               1     1.17670E-03     1.15851E-03    -678.945E-06    -667.276E-06
               4               1     1.07700E-03     1.07154E-03    -619.607E-06    -618.628E-06
               5               1     1.11986E-03     1.07802E-03    -643.207E-06    -620.766E-06
               6               1     1.07697E-03     1.07328E-03    -618.655E-06    -608.743E-06
               7               1     887.069E-06     879.090E-06    -509.092E-06    -504.089E-06
               8               1     927.186E-06     886.941E-06    -524.627E-06    -506.457E-06
               9               1     894.951E-06     926.940E-06    -509.298E-06    -500.279E-06
              10               1     639.135E-06     626.996E-06    -356.051E-06    -361.330E-06
              11               1     677.449E-06     628.815E-06    -364.741E-06    -351.946E-06
              12               1     660.599E-06     732.292E-06    -364.769E-06    -350.594E-06
              13               1     319.111E-06     319.387E-06    -143.494E-06    -139.079E-06
              14               1     488.253E-06     404.972E-06    -228.966E-06    -207.243E-06
              15               1     303.617E-06     534.787E-06    -125.538E-06    -122.648E-06
              16               1     318.676E-06     465.603E-06     150.487E-06     175.550E-06
              17               1     610.961E-06     532.767E-06     316.148E-06     284.996E-06
              18               1     715.053E-06     938.342E-06     218.975E-06     215.288E-06
              19               1     42.1893E-03     43.2698E-03     24.2845E-03     24.0721E-03
              20               1     42.9999E-03     41.9115E-03     24.6449E-03     24.1897E-03
              21               1     42.5022E-03     42.4069E-03     24.3512E-03     24.3902E-03
              22               1     44.0354E-03     43.4617E-03     24.4999E-03     24.2612E-03
              23               1     45.7025E-03     45.4122E-03     24.4250E-03     24.2108E-03
              24               1     46.8036E-03     50.2716E-03     23.9734E-03     24.4197E-03
              25               1     56.8173E-03     49.2033E-03     24.6279E-03     24.2866E-03
              26               1     49.7101E-03     56.7101E-03     23.9915E-03     23.3502E-03
              27               1     44.6145E-03     43.1563E-03     23.3207E-03     23.4265E-03
              28               1     47.5641E-03     46.4141E-03     23.4768E-03     22.7684E-03
              29               1     50.9301E-03     50.5774E-03     23.6327E-03     22.9855E-03
              30               1     55.2984E-03     54.0709E-03     23.4633E-03     22.8128E-03
              31               1     59.2063E-03     60.0101E-03     23.2991E-03     22.9944E-03
              32               1     64.8069E-03     64.3280E-03     23.1359E-03     23.1369E-03
              33               1     68.9251E-03     68.2907E-03     22.9418E-03     23.2040E-03
              34               1     69.0967E-03     79.2084E-03     22.2251E-03     23.5575E-03
              35               1     90.0397E-03     72.2878E-03     23.5009E-03     23.4735E-03
              36               1     70.8593E-03     85.3951E-03     22.5879E-03     21.4542E-03
              37               1     61.1435E-03     62.6363E-03     21.9008E-03     22.5133E-03
              38               1     74.6466E-03     66.2747E-03     22.1212E-03     21.1077E-03
              39               1     73.5627E-03     77.1214E-03     22.5087E-03     20.9951E-03
              40               1     82.0355E-03     79.9580E-03     22.3975E-03     21.3020E-03
              41               1     87.4360E-03     86.5895E-03     21.9751E-03     21.1407E-03
              42               1     91.8674E-03     94.0613E-03     21.8035E-03     21.6828E-03
              43               1     99.2258E-03     98.3442E-03     21.5818E-03     22.1359E-03
              44               1     103.299E-03     102.173E-03     21.2892E-03     22.1272E-03
              45               1     101.220E-03     116.936E-03     20.4799E-03     22.7168E-03
              46               1     130.917E-03     103.265E-03     22.1932E-03     22.4919E-03
              47               1     99.3950E-03     120.720E-03     21.1793E-03     19.5337E-03
              48               1     87.9363E-03     94.9589E-03     20.5798E-03     21.7193E-03
              49               1     113.551E-03     96.1399E-03     20.6095E-03     19.3575E-03
              50               1     105.360E-03     114.012E-03     21.4664E-03     19.1613E-03
              51               1     116.967E-03     114.227E-03     21.1533E-03     19.6705E-03
              52               1     123.146E-03     121.986E-03     20.5773E-03     19.4751E-03
              53               1     127.050E-03     130.521E-03     20.3324E-03     20.2231E-03
              54               1     135.450E-03     134.170E-03     20.0274E-03     20.8832E-03
              55               1     139.197E-03     137.347E-03     19.5777E-03     20.8418E-03
              56               1     134.604E-03     155.348E-03     18.6051E-03     21.6048E-03
              57               1     171.973E-03     135.148E-03     20.6888E-03     21.3061E-03
              58               1     128.893E-03     156.352E-03     19.5810E-03     17.5210E-03
              59               1     120.170E-03     133.523E-03     19.7760E-03     21.6265E-03
              60               1     157.597E-03     131.502E-03     18.8178E-03     17.9640E-03
              61               1     140.579E-03     158.094E-03     20.2235E-03     18.4433E-03
              62               1     157.156E-03     153.550E-03     18.9674E-03     18.6772E-03
              63               1     161.963E-03     159.282E-03     18.2204E-03     18.2416E-03
              64               1     154.753E-03     180.429E-03     16.5059E-03     18.7237E-03
              65               1     197.733E-03     155.306E-03     18.5996E-03     18.9237E-03
              66               1     147.486E-03     179.162E-03     16.9319E-03     14.5555E-03
              67               1     28.5583E-03     30.8739E-03     16.3983E-03     16.2605E-03
              68               1     29.3008E-03     28.7739E-03     16.7669E-03     16.5276E-03
              69               1     29.5365E-03     29.2557E-03     16.5202E-03     16.5072E-03
              70               1     33.3157E-03     32.5450E-03     16.5400E-03     16.5283E-03
              71               1     36.4647E-03     36.5770E-03     16.6122E-03     16.4246E-03
              72               1     41.0251E-03     46.3442E-03     16.5717E-03     16.9648E-03
              73               1     55.7132E-03     43.5495E-03     17.1824E-03     16.9690E-03
              74               1     45.1590E-03     57.3390E-03     16.4076E-03     15.8126E-03
              75               1     38.4271E-03     36.0015E-03     15.3357E-03     15.7758E-03
              76               1     45.0139E-03     43.3939E-03     15.1459E-03     15.0825E-03
              77               1     49.9469E-03     51.6610E-03     15.3900E-03     15.0784E-03
              78               1     58.6799E-03     57.4646E-03     15.2829E-03     15.5628E-03
              79               1     64.1727E-03     66.4550E-03     15.2386E-03     15.5214E-03
              80               1     74.3636E-03     72.2438E-03     15.8600E-03     15.9478E-03
              81               1     79.1742E-03     77.7847E-03     16.1138E-03     15.4489E-03
              82               1     82.1452E-03     94.8006E-03     15.8945E-03     16.5066E-03
              83               1     107.606E-03     82.1312E-03     16.9387E-03     16.4948E-03
              84               1     81.8962E-03     102.680E-03     15.5350E-03     14.2575E-03
              85               1     71.3519E-03     74.4267E-03     14.3009E-03     15.3704E-03
              86               1     91.6878E-03     79.4542E-03     12.9155E-03     13.2743E-03
              87               1     89.7031E-03     96.7520E-03     14.2538E-03     13.6144E-03
              88               1     100.700E-03     99.9508E-03     13.2983E-03     14.2605E-03
              89               1     110.025E-03     107.625E-03     14.0920E-03     14.4336E-03
              90               1     113.864E-03     117.603E-03     14.2634E-03     14.4549E-03
              91               1     126.409E-03     122.124E-03     15.0023E-03     14.8237E-03
              92               1     129.647E-03     127.409E-03     15.5643E-03     14.2528E-03
              93               1     129.915E-03     149.018E-03     14.8825E-03     15.7535E-03
              94               1     164.571E-03     126.677E-03     16.5953E-03     15.9131E-03
              95               1     123.744E-03     152.433E-03     14.3710E-03     12.4351E-03
              96               1     111.977E-03     122.562E-03     12.9826E-03     14.7229E-03
              97               1     147.169E-03     122.914E-03     10.7731E-03     11.3917E-03
              98               1     136.301E-03     149.653E-03     12.7909E-03     11.8337E-03
              99               1     149.941E-03     148.460E-03     11.4875E-03     12.9556E-03
             100               1     160.543E-03     156.550E-03     12.5675E-03     13.0148E-03
             101               1     162.338E-03     167.784E-03     12.9451E-03     13.1248E-03
             102               1     176.693E-03     170.889E-03     13.8533E-03     13.5645E-03
             103               1     178.506E-03     175.643E-03     14.7081E-03     12.9432E-03
             104               1     176.084E-03     201.176E-03     13.6786E-03     14.8596E-03
             105               1     218.994E-03     169.757E-03     15.9944E-03     15.1381E-03
             106               1     164.146E-03     200.000E-03     13.0598E-03     10.5681E-03
             107               1     154.711E-03     173.118E-03     11.1281E-03     13.1325E-03
             108               1     205.585E-03     168.633E-03     9.47204E-03     9.26748E-03
             109               1     182.976E-03     208.205E-03     11.0018E-03     9.13447E-03
             110               1     205.396E-03     199.421E-03     10.9127E-03     11.7643E-03
             111               1     210.511E-03     206.050E-03     11.6303E-03     10.7096E-03
             112               1     202.808E-03     235.645E-03     11.5421E-03     13.6897E-03
             113               1     252.292E-03     196.372E-03     13.5639E-03     13.6274E-03
             114               1     188.730E-03     228.969E-03     11.1956E-03     8.78678E-03
             115               1     13.1966E-03     17.8175E-03     7.55562E-03     7.48969E-03
             116               1     12.9301E-03     13.3774E-03     7.23739E-03     7.28290E-03
             117               1     16.4623E-03     16.1312E-03     7.23382E-03     7.61823E-03
             118               1     23.7674E-03     23.2130E-03     7.28925E-03     7.85988E-03
             119               1     30.2715E-03     29.9562E-03     7.51655E-03     7.82666E-03
             120               1     36.1501E-03     43.0477E-03     7.60837E-03     7.55724E-03
             121               1     58.5308E-03     40.6124E-03     8.49898E-03     7.60892E-03
             122               1     43.2078E-03     60.3183E-03     8.16359E-03     7.24491E-03
             123               1     38.3122E-03     36.0476E-03     6.22338E-03     7.20817E-03
             124               1     49.4389E-03     46.6882E-03     5.18902E-03     6.55789E-03
             125               1     54.2961E-03     57.3150E-03     6.04407E-03     7.16073E-03
             126               1     64.0315E-03     62.7762E-03     6.04336E-03     7.34589E-03
             127               1     71.4119E-03     72.5155E-03     6.73249E-03     7.33966E-03
             128               1     81.7222E-03     79.5687E-03     6.93818E-03     6.90520E-03
             129               1     89.4831E-03     86.4859E-03     7.40067E-03     6.84300E-03
             130               1     92.1983E-03     106.920E-03     7.50103E-03     6.45799E-03
             131               1     127.364E-03     94.9839E-03     9.30997E-03     7.02552E-03
             132               1     93.4317E-03     120.580E-03     8.09481E-03     6.06818E-03
             133               1     85.5070E-03     92.9858E-03     4.50226E-03     6.87836E-03
             134               1     114.472E-03     97.0858E-03     3.40045E-03     5.88498E-03
             135               1     106.385E-03     117.206E-03     4.20839E-03     6.58188E-03
             136               1     119.200E-03     116.276E-03     5.15063E-03     7.28662E-03
             137               1     126.776E-03     124.675E-03     5.20413E-03     6.42423E-03
             138               1     132.315E-03     135.087E-03     6.11297E-03     6.39984E-03
             139               1     144.646E-03     140.674E-03     6.39550E-03     5.75731E-03
             140               1     151.954E-03     147.471E-03     6.93774E-03     5.32701E-03
             141               1     151.430E-03     173.919E-03     7.33192E-03     5.18208E-03
             142               1     199.145E-03     152.061E-03     9.71732E-03     6.07523E-03
             143               1     146.284E-03     183.576E-03     7.93018E-03     4.69960E-03
             144               1     137.159E-03     154.917E-03     2.70982E-03     6.30285E-03
             145               1     184.735E-03     152.447E-03     997.492E-06     4.80790E-03
             146               1     163.573E-03     181.898E-03     2.51167E-03     5.83442E-03
             147               1     179.111E-03     174.436E-03     3.71997E-03     6.62490E-03
             148               1     186.520E-03     183.019E-03     3.89557E-03     5.50578E-03
             149               1     190.190E-03     194.198E-03     5.03391E-03     5.32586E-03
             150               1     203.750E-03     198.470E-03     5.58356E-03     4.55892E-03
             151               1     210.661E-03     204.588E-03     6.23266E-03     3.85519E-03
             152               1     206.997E-03     236.644E-03     6.95657E-03     3.84117E-03
             153               1     266.190E-03     205.455E-03     9.92463E-03     5.06385E-03
             154               1     195.737E-03     242.349E-03     7.60235E-03     3.27306E-03
             155               1     186.985E-03     213.270E-03     496.178E-06     4.40360E-03
             156               1     252.956E-03     205.949E-03    -2.73571E-03     1.63393E-03
             157               1     219.238E-03     246.897E-03     1.32586E-03     3.67992E-03
             158               1     242.813E-03     232.295E-03     2.01878E-03     3.66059E-03
             159               1     249.052E-03     239.242E-03     4.26483E-03     3.40274E-03
             160               1     239.531E-03     274.523E-03     5.05522E-03     2.99386E-03
             161               1     304.789E-03     235.737E-03     9.71862E-03     4.83975E-03
             162               1     223.746E-03     274.527E-03     6.59222E-03     2.16389E-03
             163               1     5.40988E-03     11.7347E-03    -2.94392E-03    -2.37820E-03
             164               1     4.97201E-03     7.30876E-03    -2.65744E-03    -1.96845E-03
             165               1     11.9530E-03     11.1245E-03    -2.55382E-03    -1.72024E-03
             166               1     23.2059E-03     20.2903E-03    -2.08634E-03    -2.03444E-03
             167               1     29.1921E-03     30.2692E-03    -2.26500E-03    -2.59769E-03
             168               1     37.6680E-03     46.1207E-03    -2.85496E-03    -1.99949E-03
             169               1     62.0926E-03     40.8344E-03    -2.31492E-03    -3.06017E-03
             170               1     46.4550E-03     68.0245E-03    -2.77627E-03    -4.19688E-03
             171               1     44.6106E-03     46.1201E-03    -2.80461E-03    -285.998E-06
             172               1     59.7943E-03     51.9804E-03    -3.16252E-03    -878.805E-06
             173               1     59.1821E-03     64.4798E-03    -2.04272E-03    -1.14956E-03
             174               1     69.6229E-03     67.3120E-03    -1.98730E-03    -1.56417E-03
             175               1     76.2711E-03     80.2434E-03    -2.87137E-03    -2.62854E-03
             176               1     89.2167E-03     87.1851E-03    -2.48063E-03    -2.47441E-03
             177               1     95.9464E-03     95.3716E-03    -3.28738E-03    -3.99135E-03
             178               1     101.030E-03     119.739E-03    -4.11320E-03    -3.08511E-03
             179               1     141.288E-03     101.671E-03    -2.61712E-03    -4.95266E-03
             180               1     105.340E-03     141.287E-03    -3.29464E-03    -6.96232E-03
             181               1     100.541E-03     116.965E-03    -2.44791E-03     2.06682E-03
             182               1     135.644E-03     109.538E-03    -3.90986E-03     477.513E-06
             183               1     117.875E-03     132.596E-03    -734.049E-06    -634.268E-06
             184               1     129.948E-03     129.312E-03    -2.49518E-03    -891.449E-06
             185               1     139.388E-03     137.522E-03    -2.11972E-03    -2.28714E-03
             186               1     141.761E-03     151.204E-03    -3.49500E-03    -3.21065E-03
             187               1     159.299E-03     155.362E-03    -3.57165E-03    -3.37238E-03
             188               1     163.822E-03     163.630E-03    -4.27591E-03    -5.54341E-03
             189               1     166.616E-03     195.113E-03    -5.93176E-03    -4.55379E-03
             190               1     223.199E-03     164.796E-03    -2.98511E-03    -7.21764E-03
             191               1     166.176E-03     217.058E-03    -4.25282E-03    -10.1896E-03
             192               1     160.101E-03     191.782E-03    -2.69749E-03     4.04580E-03
             193               1     215.730E-03     170.517E-03    -4.76560E-03     1.42292E-03
             194               1     181.032E-03     205.493E-03    -294.389E-06    -534.529E-06
             195               1     194.819E-03     194.021E-03    -2.78860E-03    -568.565E-06
             196               1     205.052E-03     201.859E-03    -2.51738E-03    -2.72256E-03
             197               1     203.635E-03     217.159E-03    -4.14962E-03    -3.84819E-03
             198               1     223.990E-03     218.819E-03    -4.57888E-03    -4.25282E-03
             199               1     227.077E-03     226.677E-03    -5.31195E-03    -7.15137E-03
             200               1     227.468E-03     265.011E-03    -7.68026E-03    -6.06314E-03
             201               1     299.162E-03     223.267E-03    -3.45709E-03    -9.48754E-03
             202               1     222.616E-03     287.294E-03    -5.25566E-03    -13.3217E-03
             203               1     215.191E-03     259.698E-03    -6.25722E-03     3.28462E-03
             204               1     290.354E-03     223.996E-03    -6.92529E-03     235.959E-06
             205               1     238.448E-03     276.581E-03    -3.88919E-03    -3.38279E-03
             206               1     263.865E-03     252.623E-03    -4.11038E-03    -2.19584E-03
             207               1     269.041E-03     261.044E-03    -5.93721E-03    -7.79492E-03
             208               1     260.235E-03     305.884E-03    -6.86014E-03    -6.04791E-03
             209               1     341.952E-03     253.258E-03    -3.61963E-03    -10.6394E-03
             210               1     253.652E-03     325.409E-03    -4.55688E-03    -14.6782E-03
             211               1     19.8375E-03     21.2592E-03    -11.4113E-03    -11.0161E-03
             212               1     20.5860E-03     19.5853E-03    -11.7916E-03    -11.0824E-03
             213               1     23.7434E-03     24.7337E-03    -12.1105E-03    -13.1508E-03
             214               1     31.9578E-03     32.5351E-03    -13.1033E-03    -13.3878E-03
             215               1     39.1590E-03     38.9594E-03    -13.0944E-03    -13.5268E-03
             216               1     45.1895E-03     57.0036E-03    -13.7812E-03    -14.7810E-03
             217               1     72.9580E-03     53.0527E-03    -14.6732E-03    -13.5506E-03
             218               1     56.0391E-03     75.1192E-03    -15.9156E-03    -14.9234E-03
             219               1     48.8911E-03     54.4476E-03    -6.14959E-03    -6.27392E-03
             220               1     63.9375E-03     56.6413E-03    -7.72023E-03    -7.83373E-03
             221               1     61.8291E-03     71.1237E-03    -9.71242E-03    -10.5477E-03
             222               1     76.2956E-03     75.7661E-03    -11.3745E-03    -11.7234E-03
             223               1     82.0826E-03     88.4525E-03    -11.6632E-03    -12.7888E-03
             224               1     95.8295E-03     98.0572E-03    -14.1875E-03    -13.8119E-03
             225               1     105.531E-03     103.635E-03    -13.8537E-03    -14.0110E-03
             226               1     105.861E-03     131.947E-03    -16.0454E-03    -16.8052E-03
             227               1     155.144E-03     117.057E-03    -18.6457E-03    -16.7010E-03
             228               1     116.421E-03     152.039E-03    -21.5858E-03    -19.7100E-03
             229               1     107.258E-03     129.522E-03    -206.368E-06    -1.00197E-03
             230               1     143.324E-03     118.455E-03    -3.12849E-03    -4.38950E-03
             231               1     121.137E-03     142.819E-03    -7.23561E-03    -7.56390E-03
             232               1     137.944E-03     139.684E-03    -9.10124E-03    -10.6144E-03
             233               1     147.841E-03     150.874E-03    -11.0346E-03    -11.3866E-03
             234               1     150.662E-03     162.539E-03    -12.1248E-03    -12.9563E-03
             235               1     167.754E-03     170.511E-03    -15.1762E-03    -14.5252E-03
             236               1     176.218E-03     174.644E-03    -15.4461E-03    -14.8998E-03
             237               1     171.250E-03     210.969E-03    -18.6090E-03    -19.4081E-03
             238               1     240.948E-03     184.775E-03    -23.2788E-03    -20.3512E-03
             239               1     180.259E-03     232.501E-03    -27.8284E-03    -25.1069E-03
             240               1     170.126E-03     209.546E-03     5.42214E-03     3.85721E-03
             241               1     228.303E-03     184.851E-03     896.818E-06    -1.28106E-03
             242               1     184.642E-03     220.158E-03    -5.03567E-03    -5.20523E-03
             243               1     206.040E-03     207.544E-03    -7.97340E-03    -9.85906E-03
             244               1     215.587E-03     219.827E-03    -10.2851E-03    -10.8511E-03
             245               1     214.930E-03     231.789E-03    -12.2940E-03    -13.0568E-03
             246               1     234.461E-03     238.418E-03    -16.1557E-03    -15.3021E-03
             247               1     242.255E-03     240.642E-03    -16.9418E-03    -15.9071E-03
             248               1     232.185E-03     284.676E-03    -21.1162E-03    -22.0108E-03
             249               1     320.718E-03     247.765E-03    -27.7017E-03    -23.9117E-03
             250               1     239.746E-03     307.314E-03    -33.7709E-03    -30.2955E-03
             251               1     227.186E-03     282.746E-03     8.02189E-03     5.66120E-03
             252               1     307.848E-03     244.799E-03     287.846E-06    -1.00828E-03
             253               1     239.461E-03     293.134E-03    -5.36868E-03    -6.29850E-03
             254               1     275.241E-03     271.617E-03    -13.8699E-03    -13.3195E-03
             255               1     282.535E-03     278.363E-03    -13.6483E-03    -14.6195E-03
             256               1     263.642E-03     327.690E-03    -21.9019E-03    -22.5581E-03
             257               1     367.042E-03     282.646E-03    -28.3682E-03    -25.5074E-03
             258               1     273.318E-03     350.368E-03    -36.7866E-03    -33.0184E-03
             259               1     37.1744E-03     39.8090E-03    -20.6689E-03    -20.7724E-03
             260               1     41.3481E-03     41.6646E-03    -23.7430E-03    -24.0224E-03
             261               1     42.4161E-03     43.0718E-03    -23.3379E-03    -24.2626E-03
             262               1     47.6184E-03     48.8923E-03    -24.6729E-03    -24.8706E-03
             263               1     56.8144E-03     53.0073E-03    -25.9496E-03    -24.9884E-03
             264               1     58.1626E-03     66.7608E-03    -24.4612E-03    -26.4806E-03
             265               1     83.9948E-03     70.4874E-03    -30.5878E-03    -29.1791E-03
             266               1     81.7088E-03     91.0422E-03    -30.7439E-03    -27.9283E-03
             267               1     45.6901E-03     49.0309E-03    -8.96935E-03    -11.9560E-03
             268               1     63.1962E-03     59.5598E-03    -14.8651E-03    -16.9606E-03
             269               1     73.0788E-03     75.2948E-03    -20.1097E-03    -20.0975E-03
             270               1     83.7783E-03     83.2819E-03    -21.0259E-03    -22.0058E-03
             271               1     93.8660E-03     93.1975E-03    -22.5934E-03    -22.5154E-03
             272               1     102.115E-03     104.106E-03    -23.7770E-03    -24.4970E-03
             273               1     116.473E-03     108.489E-03    -26.9466E-03    -24.7890E-03
             274               1     115.340E-03     131.637E-03    -25.1150E-03    -28.4772E-03
             275               1     156.167E-03     127.491E-03    -38.1889E-03    -34.7315E-03
             276               1     145.927E-03     163.068E-03    -42.3691E-03    -35.9701E-03
             277               1     107.580E-03     119.163E-03     4.27673E-03    -2.20103E-03
             278               1     133.588E-03     114.748E-03    -5.27950E-03    -9.26651E-03
             279               1     130.844E-03     140.201E-03    -17.0837E-03    -15.7698E-03
             280               1     146.590E-03     142.162E-03    -17.3395E-03    -19.5964E-03
             281               1     154.054E-03     154.939E-03    -20.5900E-03    -20.4297E-03
             282               1     164.236E-03     162.649E-03    -22.1044E-03    -22.1967E-03
             283               1     171.681E-03     174.182E-03    -23.7587E-03    -24.7439E-03
             284               1     187.264E-03     175.610E-03    -28.8094E-03    -25.3653E-03
             285               1     181.326E-03     204.848E-03    -26.5038E-03    -31.2416E-03
             286               1     234.602E-03     191.253E-03    -46.7264E-03    -41.1008E-03
             287               1     214.727E-03     239.800E-03    -55.0577E-03    -44.9382E-03
             288               1     177.336E-03     197.571E-03     17.3852E-03     7.28683E-03
             289               1     212.370E-03     178.495E-03     4.03221E-03    -1.97786E-03
             290               1     195.885E-03     212.688E-03    -14.7741E-03    -12.0023E-03
             291               1     215.901E-03     207.773E-03    -14.4448E-03    -17.9495E-03
             292               1     221.142E-03     222.733E-03    -19.4730E-03    -19.0311E-03
             293               1     231.513E-03     229.190E-03    -21.6332E-03    -21.7317E-03
             294               1     237.890E-03     240.991E-03    -23.9355E-03    -25.1492E-03
             295               1     254.582E-03     239.538E-03    -30.6966E-03    -26.0799E-03
             296               1     243.862E-03     274.027E-03    -28.0158E-03    -33.9653E-03
             297               1     308.366E-03     251.618E-03    -54.8824E-03    -47.2486E-03
             298               1     279.271E-03     311.677E-03    -67.0432E-03    -53.4721E-03
             299               1     241.915E-03     270.546E-03     26.8521E-03     13.2543E-03
             300               1     285.315E-03     238.136E-03     9.40051E-03     1.56039E-03
             301               1     258.019E-03     280.273E-03    -16.6662E-03    -12.1154E-03
             302               1     279.355E-03     272.646E-03    -16.7748E-03    -22.3226E-03
             303               1     292.781E-03     278.643E-03    -29.5501E-03    -23.3799E-03
             304               1     281.074E-03     314.600E-03    -27.5429E-03    -34.3006E-03
             305               1     352.462E-03     287.502E-03    -59.0932E-03    -50.1553E-03
             306               1     318.519E-03     355.463E-03    -74.1086E-03    -58.2944E-03
             307               1     164.117E-03     144.449E-03    -15.0191E-03    -13.4493E-03
             308               1     163.287E-03     185.954E-03    -29.5923E-03    -29.4066E-03
             309               1     158.662E-03     167.057E-03    -24.2311E-03    -20.3503E-03
             310               1     209.393E-03     173.235E-03    -25.9537E-03    -24.3338E-03
             311               1     182.668E-03     232.728E-03    -24.7955E-03    -24.5373E-03
             312               1     259.192E-03     191.955E-03    -24.2513E-03    -24.0461E-03
             313               1     193.387E-03     247.652E-03    -25.3271E-03    -26.9483E-03
             314               1     215.637E-03     199.293E-03    -30.7105E-03    -29.9936E-03
             315               1     218.083E-03     234.335E-03    -45.8164E-03    -44.4660E-03
             316               1     204.211E-03     222.858E-03    -37.9771E-03    -35.9463E-03
             317               1     266.348E-03     219.207E-03    -41.6164E-03    -41.5168E-03
             318               1     229.643E-03     291.103E-03    -40.1630E-03    -40.3715E-03
             319               1     305.117E-03     231.730E-03    -41.0228E-03    -37.7878E-03
             320               1     232.648E-03     286.059E-03    -41.7235E-03    -41.8152E-03
             321               1     256.964E-03     248.418E-03    -46.2608E-03    -44.2461E-03
             322               1     258.757E-03     273.342E-03    -54.7408E-03    -54.3087E-03
             323               1     242.786E-03     269.660E-03    -54.0851E-03    -50.3905E-03
             324               1     320.515E-03     258.115E-03    -56.0421E-03    -52.8595E-03
             325               1     266.446E-03     329.939E-03    -51.0149E-03    -51.4698E-03
             326               1     341.277E-03     264.938E-03    -49.1925E-03    -49.7418E-03
             327               1     257.408E-03     309.120E-03    -49.7648E-03    -50.0025E-03
             328               1     287.415E-03     282.712E-03    -53.3467E-03    -52.4116E-03
             329               1     288.489E-03     294.037E-03    -60.6082E-03    -59.1463E-03
             330               1     270.665E-03     315.477E-03    -59.0406E-03    -48.5705E-03
             331               1     354.236E-03     266.828E-03    -62.5070E-03    -55.1068E-03
             332               1     284.212E-03     355.161E-03    -57.9128E-03    -59.0715E-03
             333               1     360.656E-03     275.948E-03    -54.7987E-03    -58.6779E-03
             334               1     273.293E-03     335.022E-03    -54.8422E-03    -62.0371E-03
             335               1     297.762E-03     302.808E-03    -59.7424E-03    -58.7552E-03
             336               1     304.818E-03     307.223E-03    -62.6070E-03    -60.7761E-03
             337               1     272.271E-03     342.448E-03    -42.8375E-03    -42.6493E-03
             338               1     374.201E-03     281.448E-03    -48.6372E-03    -49.0596E-03
             339               1     267.934E-03     364.763E-03    -55.3895E-03    -56.0669E-03
             340               1     366.218E-03     282.288E-03    -69.1827E-03    -65.1237E-03
             341               1     283.018E-03     340.395E-03    -72.2097E-03    -69.1144E-03
             342               1     305.922E-03     312.874E-03    -56.0509E-03    -52.9470E-03
             343               1     284.408E-03     280.940E-03    -43.5845E-03    -45.2036E-03
             344               1     300.249E-03     352.869E-03    -704.370E-06    -16.1358E-03
             345               1     345.974E-03     274.347E-03    -22.0459E-03    -25.4070E-03
             346               1     274.730E-03     327.117E-03    -46.6341E-03    -43.5713E-03
             347               1     329.733E-03     269.422E-03    -71.2000E-03    -66.9300E-03
             348               1     292.339E-03     310.448E-03    -90.9332E-03    -75.8983E-03
             349               1     204.822E-03     235.521E-03    -49.8696E-03    -46.7096E-03
             350               1     266.594E-03     218.560E-03    -51.7290E-03    -50.2341E-03
             351               1     222.540E-03     244.470E-03    -49.9636E-03    -50.3770E-03
             352               1     225.306E-03     245.822E-03    -51.3143E-03    -50.3634E-03
             353               1     263.701E-03     216.832E-03    -51.8250E-03    -50.2055E-03
             354               1     204.579E-03     235.972E-03    -50.7252E-03    -50.9187E-03
             355               1     202.470E-03     203.772E-03    -34.8462E-03    -34.9046E-03
             356               1     230.047E-03     272.017E-03    -46.4157E-03    -44.6695E-03
             357               1     301.099E-03     242.031E-03    -49.2771E-03    -48.5729E-03
             358               1     249.869E-03     278.047E-03    -47.1840E-03    -48.5342E-03
             359               1     244.458E-03     266.185E-03    -48.3192E-03    -45.7700E-03
             360               1     281.932E-03     232.192E-03    -48.3780E-03    -46.5132E-03
             361               1     215.744E-03     244.436E-03    -47.5052E-03    -46.7745E-03
             362               1     214.506E-03     216.005E-03    -34.1834E-03    -34.2419E-03
             363               1     247.180E-03     299.040E-03    -42.3137E-03    -38.5432E-03
             364               1     332.851E-03     259.414E-03    -44.0815E-03    -40.4279E-03
             365               1     262.960E-03     291.431E-03    -39.7051E-03    -39.4205E-03
             366               1     256.781E-03     277.239E-03    -38.4565E-03    -39.9204E-03
             367               1     287.754E-03     239.942E-03    -37.8823E-03    -38.1050E-03
             368               1     218.272E-03     244.328E-03    -38.1532E-03    -37.8477E-03
             369               1     219.172E-03     220.771E-03    -31.4504E-03    -31.5088E-03
             370               1     258.097E-03     329.008E-03    -27.0334E-03    -18.7391E-03
             371               1     345.805E-03     253.301E-03    -29.1940E-03    -22.9927E-03
             372               1     264.133E-03     298.194E-03    -26.2978E-03    -28.5945E-03
             373               1     251.170E-03     273.892E-03    -27.2108E-03    -26.2425E-03
             374               1     288.936E-03     232.991E-03    -26.2203E-03    -29.7032E-03
             375               1     211.256E-03     244.399E-03    -22.6448E-03    -27.6933E-03
             376               1     216.267E-03     217.859E-03    -26.8332E-03    -26.8917E-03
             377               1     259.071E-03     342.551E-03     7.02706E-03     4.68226E-03
             378               1     360.368E-03     270.288E-03    -1.54345E-03    -2.97316E-03
             379               1     249.374E-03     300.831E-03    -4.49298E-03    -554.622E-06
             380               1     237.288E-03     257.209E-03    -11.2180E-03    -9.81006E-03
             381               1     264.735E-03     222.750E-03    -14.9078E-03    -15.1977E-03
             382               1     199.555E-03     230.907E-03    -23.1573E-03    -19.0686E-03
             383               1     206.128E-03     207.605E-03    -20.6467E-03    -20.7051E-03
             384               1     320.028E-03     370.590E-03     57.5997E-03     43.9082E-03
             385               1     343.864E-03     274.320E-03     47.7228E-03     41.2126E-03
             386               1     247.872E-03     281.566E-03     16.5763E-03     28.1687E-03
             387               1     236.109E-03     231.129E-03     23.5120E-03     16.2699E-03
             388               1     217.121E-03     191.886E-03    -1.44494E-03     5.86543E-03
             389               1     171.266E-03     180.041E-03    -18.1199E-03    -7.86794E-03
             390               1     189.629E-03     190.887E-03    -13.3123E-03    -13.3708E-03
             391               1     1.24858E-03     1.22942E-03     720.807E-06     709.421E-06
             392               1     1.26830E-03     1.24319E-03     732.233E-06     717.531E-06
             393               1     1.25786E-03     1.25093E-03     725.441E-06     721.615E-06
             394               1     1.26168E-03     1.24251E-03     726.900E-06     715.819E-06
             395               1     1.24371E-03     1.25393E-03     716.218E-06     720.600E-06
             396               1     1.28653E-03     1.25004E-03     735.897E-06     718.112E-06
             397               1     1.23894E-03     1.20209E-03     711.803E-06     686.239E-06
             398               1     1.13468E-03     1.11702E-03     654.740E-06     643.428E-06
             399               1     1.15206E-03     1.13299E-03     664.916E-06     651.409E-06
             400               1     1.15911E-03     1.14714E-03     663.121E-06     658.353E-06
             401               1     1.16271E-03     1.13355E-03     657.480E-06     640.172E-06
             402               1     1.17967E-03     1.22014E-03     657.891E-06     667.965E-06
             403               1     1.26840E-03     1.19241E-03     675.828E-06     663.103E-06
             404               1     1.18636E-03     1.20872E-03     652.081E-06     627.435E-06
             405               1     915.632E-06     904.806E-06     527.995E-06     515.814E-06
             406               1     932.091E-06     921.940E-06     537.876E-06     525.500E-06
             407               1     936.796E-06     940.544E-06     519.243E-06     528.113E-06
             408               1     998.324E-06     1.00798E-03     534.145E-06     543.385E-06
             409               1     1.02414E-03     1.08245E-03     526.528E-06     531.082E-06
             410               1     1.28880E-03     1.07283E-03     569.354E-06     535.191E-06
             411               1     1.10270E-03     1.23295E-03     542.909E-06     507.299E-06
             412               1     575.773E-06     606.416E-06     331.617E-06     333.194E-06
             413               1     577.150E-06     640.301E-06     329.888E-06     349.913E-06
             414               1     700.883E-06     685.715E-06     362.898E-06     373.746E-06
             415               1     758.699E-06     727.892E-06     349.511E-06     332.374E-06
             416               1     858.938E-06     1.00835E-03     351.943E-06     364.092E-06
             417               1     1.24807E-03     866.272E-06     353.386E-06     327.526E-06
             418               1     997.554E-06     1.33600E-03     335.234E-06     284.437E-06
             419               1     255.267E-06     360.992E-06     146.615E-06     146.760E-06
             420               1     306.122E-06     266.551E-06     155.407E-06     147.058E-06
             421               1     341.934E-06     260.481E-06     87.8200E-06     82.0156E-06
             422               1     575.676E-06     532.314E-06     115.324E-06     73.2964E-06
             423               1     706.863E-06     1.00990E-03     61.2882E-06     48.7698E-06
             424               1     1.45516E-03     970.316E-06     81.2825E-06     88.1214E-06
             425               1     989.906E-06     1.50250E-03     38.2761E-06     44.2519E-06
             426               1     480.162E-06     687.142E-06    -134.667E-06    -140.514E-06
             427               1     425.994E-06     410.666E-06    -207.327E-06    -225.525E-06
             428               1     475.249E-06     494.066E-06    -218.115E-06    -260.827E-06
             429               1     782.620E-06     711.563E-06    -285.434E-06    -255.591E-06
             430               1     936.693E-06     1.16844E-03    -244.374E-06    -302.170E-06
             431               1     1.66124E-03     1.28984E-03    -372.776E-06    -344.903E-06
             432               1     1.65212E-03     1.99802E-03    -374.087E-06    -312.834E-06
             433               1     193.148E-03     242.591E-03    -3.52586E-03    -2.98088E-03
             434               1     260.906E-03     200.008E-03    -3.46143E-03    -3.89614E-03
             435               1     201.028E-03     232.327E-03    -2.92327E-03    -3.92504E-03
             436               1     202.415E-03     199.427E-03    -3.57118E-03    -4.13788E-03
             437               1     194.173E-03     192.787E-03    -3.64627E-03    -3.49340E-03
             438               1     179.819E-03     183.528E-03    -3.86703E-03    -3.82890E-03
             439               1     169.864E-03     166.591E-03    -3.90953E-03    -3.19944E-03
             440               1     151.077E-03     165.827E-03    -4.14684E-03    -3.62148E-03
             441               1     161.258E-03     136.895E-03    -3.96949E-03    -3.32976E-03
             442               1     121.085E-03     129.642E-03    -3.66684E-03    -4.32430E-03
             443               1     141.480E-03     181.375E-03    -4.98778E-03    -4.56582E-03
             444               1     191.423E-03     144.595E-03    -5.04826E-03    -5.27877E-03
             445               1     143.009E-03     166.724E-03    -4.55633E-03    -5.35711E-03
             446               1     141.095E-03     139.142E-03    -5.08855E-03    -5.43849E-03
             447               1     132.497E-03     130.739E-03    -5.15462E-03    -5.01191E-03
             448               1     118.129E-03     121.434E-03    -5.30817E-03    -5.22584E-03
             449               1     108.387E-03     106.147E-03    -5.33858E-03    -4.80432E-03
             450               1     92.9779E-03     99.9909E-03    -5.43228E-03    -5.13003E-03
             451               1     91.3854E-03     81.2697E-03    -5.38030E-03    -4.87373E-03
             452               1     69.2715E-03     68.1949E-03    -5.11992E-03    -5.55187E-03
             453               1     91.3652E-03     121.691E-03    -6.65181E-03    -6.35994E-03
             454               1     123.756E-03     90.9944E-03    -6.74914E-03    -6.81033E-03
             455               1     86.9500E-03     103.108E-03    -6.40413E-03    -6.96926E-03
             456               1     81.8906E-03     81.0334E-03    -6.70216E-03    -6.88367E-03
             457               1     73.2032E-03     71.2827E-03    -6.76114E-03    -6.69801E-03
             458               1     59.6995E-03     61.6646E-03    -6.90792E-03    -6.70811E-03
             459               1     49.3126E-03     49.5081E-03    -6.74684E-03    -6.53601E-03
             460               1     39.3725E-03     38.5511E-03    -6.99412E-03    -6.70578E-03
             461               1     28.1487E-03     26.9288E-03    -6.63498E-03    -6.59924E-03
             462               1     16.7553E-03     20.5949E-03    -7.02669E-03    -6.71759E-03
             463               1     14.7365E-03     12.3998E-03    -6.50470E-03    -6.65420E-03
             464               1     21.9898E-03     38.7764E-03    -7.11327E-03    -6.98123E-03
             465               1     30.0459E-03     15.5255E-03    -7.10201E-03    -7.03292E-03
             466               1     12.9784E-03     18.8336E-03    -7.07074E-03    -7.03055E-03
             467               1     12.5757E-03     17.8603E-03    -7.10489E-03    -7.09654E-03
             468               1     202.497E-03     252.734E-03     8.60789E-03     8.71933E-03
             469               1     271.737E-03     208.391E-03     7.96411E-03     7.66862E-03
             470               1     213.034E-03     245.418E-03     7.97841E-03     7.65045E-03
             471               1     213.789E-03     210.716E-03     8.18900E-03     8.77269E-03
             472               1     206.282E-03     203.909E-03     8.14913E-03     8.20699E-03
             473               1     191.809E-03     194.862E-03     8.94337E-03     8.99355E-03
             474               1     181.801E-03     177.911E-03     8.95797E-03     8.24513E-03
             475               1     163.103E-03     179.516E-03     8.83661E-03     9.39511E-03
             476               1     174.369E-03     146.918E-03     9.59753E-03     9.01195E-03
             477               1     131.614E-03     141.944E-03     8.39178E-03     7.86167E-03
             478               1     148.522E-03     189.110E-03     7.25318E-03     7.34891E-03
             479               1     199.580E-03     150.837E-03     6.82356E-03     6.53526E-03
             480               1     152.058E-03     176.524E-03     6.78554E-03     6.57524E-03
             481               1     149.421E-03     147.501E-03     6.96261E-03     7.37218E-03
             482               1     141.429E-03     138.857E-03     6.94470E-03     6.99696E-03
             483               1     126.679E-03     129.691E-03     7.49843E-03     7.53478E-03
             484               1     116.988E-03     114.233E-03     7.50852E-03     7.02189E-03
             485               1     101.308E-03     109.590E-03     7.37367E-03     7.79592E-03
             486               1     100.772E-03     88.5020E-03     7.98748E-03     7.48870E-03
             487               1     76.6500E-03     76.7410E-03     7.12063E-03     6.70627E-03
             488               1     95.0478E-03     125.949E-03     5.59893E-03     5.61127E-03
             489               1     128.102E-03     93.9749E-03     5.37136E-03     5.10901E-03
             490               1     91.8746E-03     108.379E-03     5.31494E-03     5.20795E-03
             491               1     85.8792E-03     85.1911E-03     5.37060E-03     5.67242E-03
             492               1     77.7129E-03     75.0437E-03     5.41304E-03     5.50832E-03
             493               1     63.0954E-03     65.4284E-03     5.68443E-03     5.72204E-03
             494               1     52.9271E-03     52.6634E-03     5.54584E-03     5.55007E-03
             495               1     42.4084E-03     41.7810E-03     5.92618E-03     5.66752E-03
             496               1     30.5741E-03     29.6594E-03     5.39657E-03     5.58012E-03
             497               1     18.9002E-03     22.6857E-03     6.17622E-03     5.71104E-03
             498               1     15.5688E-03     9.54598E-03     5.33336E-03     5.09651E-03
             499               1     22.0253E-03     39.3184E-03     6.41561E-03     6.36656E-03
             500               1     29.7899E-03     14.6081E-03     6.29163E-03     6.20789E-03
             501               1     11.8216E-03     18.9647E-03     6.33348E-03     6.19997E-03
             502               1     11.3492E-03     16.6203E-03     6.31033E-03     6.29595E-03
             503               1     205.795E-03     256.270E-03     18.3257E-03     18.9760E-03
             504               1     278.289E-03     215.493E-03     18.2285E-03     20.0335E-03
             505               1     217.312E-03     248.282E-03     19.2534E-03     20.8904E-03
             506               1     218.950E-03     214.584E-03     19.7842E-03     19.9281E-03
             507               1     211.304E-03     208.614E-03     20.6540E-03     20.5665E-03
             508               1     198.250E-03     200.182E-03     20.3217E-03     19.5618E-03
             509               1     190.052E-03     185.436E-03     21.0444E-03     20.1141E-03
             510               1     172.228E-03     188.380E-03     21.0151E-03     19.5018E-03
             511               1     189.270E-03     159.309E-03     21.9217E-03     20.3108E-03
             512               1     142.875E-03     155.785E-03     21.2136E-03     19.9192E-03
             513               1     152.000E-03     192.377E-03     17.7043E-03     18.1606E-03
             514               1     205.204E-03     157.287E-03     17.6642E-03     19.0199E-03
             515               1     156.513E-03     179.761E-03     18.4646E-03     19.6176E-03
             516               1     154.799E-03     151.792E-03     18.9054E-03     18.9042E-03
             517               1     146.858E-03     144.171E-03     19.5191E-03     19.3329E-03
             518               1     133.686E-03     135.613E-03     19.3121E-03     18.6512E-03
             519               1     125.453E-03     122.259E-03     19.8036E-03     19.0020E-03
             520               1     110.901E-03     118.964E-03     19.6983E-03     18.6744E-03
             521               1     114.594E-03     100.457E-03     20.3023E-03     19.2282E-03
             522               1     88.5198E-03     90.5199E-03     19.6960E-03     18.7210E-03
             523               1     98.4620E-03     128.343E-03     16.6395E-03     16.8602E-03
             524               1     132.114E-03     99.4784E-03     16.7402E-03     17.5731E-03
             525               1     96.2599E-03     111.569E-03     17.1792E-03     17.9239E-03
             526               1     91.4468E-03     89.9012E-03     17.6149E-03     17.4311E-03
             527               1     83.5033E-03     81.0212E-03     17.9090E-03     17.6695E-03
             528               1     71.1127E-03     72.3489E-03     17.7662E-03     17.2472E-03
             529               1     62.4889E-03     62.1837E-03     18.1434E-03     17.5198E-03
             530               1     53.9538E-03     52.5121E-03     17.7391E-03     17.1530E-03
             531               1     45.1200E-03     44.8021E-03     18.0473E-03     17.5464E-03
             532               1     37.2230E-03     38.9129E-03     17.6925E-03     17.4652E-03
             533               1     35.0246E-03     30.7600E-03     17.7554E-03     17.1646E-03
             534               1     37.7050E-03     48.2897E-03     18.9667E-03     18.5861E-03
             535               1     43.3602E-03     35.3148E-03     19.2955E-03     19.3445E-03
             536               1     33.8234E-03     36.7951E-03     19.3479E-03     19.4220E-03
             537               1     33.3151E-03     33.9352E-03     19.0962E-03     18.6747E-03
             538               1     206.356E-03     261.066E-03     30.1940E-03     33.6808E-03
             539               1     274.561E-03     209.002E-03     30.9980E-03     33.1630E-03
             540               1     215.343E-03     245.771E-03     31.8375E-03     30.8323E-03
             541               1     215.257E-03     212.770E-03     31.7938E-03     31.3567E-03
             542               1     209.927E-03     208.132E-03     30.2810E-03     29.7383E-03
             543               1     199.229E-03     202.342E-03     31.3533E-03     30.4257E-03
             544               1     190.899E-03     187.799E-03     29.8030E-03     28.9647E-03
             545               1     177.185E-03     195.931E-03     29.6211E-03     29.9873E-03
             546               1     198.058E-03     162.260E-03     31.0399E-03     28.5396E-03
             547               1     152.321E-03     170.601E-03     30.0134E-03     27.2479E-03
             548               1     154.562E-03     197.449E-03     29.5471E-03     32.1598E-03
             549               1     203.989E-03     154.956E-03     30.3122E-03     31.8133E-03
             550               1     157.603E-03     179.797E-03     30.8570E-03     30.0254E-03
             551               1     154.977E-03     153.347E-03     30.7951E-03     30.3632E-03
             552               1     149.081E-03     146.791E-03     29.7658E-03     29.1923E-03
             553               1     138.181E-03     140.890E-03     30.4912E-03     29.6498E-03
             554               1     130.393E-03     127.997E-03     29.4225E-03     28.6690E-03
             555               1     119.127E-03     129.072E-03     29.2996E-03     29.3714E-03
             556               1     126.348E-03     108.213E-03     30.3743E-03     28.5695E-03
             557               1     100.531E-03     106.075E-03     29.4052E-03     27.5952E-03
             558               1     103.311E-03     133.415E-03     28.3361E-03     29.9817E-03
             559               1     133.337E-03     101.762E-03     29.1084E-03     29.9387E-03
             560               1     100.932E-03     114.318E-03     29.3369E-03     28.6228E-03
             561               1     96.1221E-03     95.4142E-03     29.2236E-03     28.8595E-03
             562               1     90.6244E-03     87.5580E-03     28.8560E-03     27.9943E-03
             563               1     80.2255E-03     82.1392E-03     29.0622E-03     28.3576E-03
             564               1     73.8831E-03     72.9773E-03     28.5406E-03     27.8769E-03
             565               1     67.9770E-03     66.9647E-03     28.8678E-03     28.0593E-03
             566               1     60.4480E-03     61.2089E-03     28.1005E-03     28.1761E-03
             567               1     57.6372E-03     56.9347E-03     29.2975E-03     28.3482E-03
             568               1     52.8898E-03     49.9632E-03     27.9923E-03     27.6005E-03
             569               1     55.5145E-03     62.8658E-03     30.4274E-03     30.7319E-03
             570               1     59.6732E-03     53.8427E-03     31.1574E-03     30.6153E-03
             571               1     54.4930E-03     54.9406E-03     31.3429E-03     30.3952E-03
             572               1     53.2879E-03     53.4790E-03     30.6455E-03     30.5545E-03
             573               1     204.839E-03     251.554E-03     50.1436E-03     46.3625E-03
             574               1     267.155E-03     209.405E-03     46.9996E-03     44.4248E-03
             575               1     202.159E-03     239.278E-03     41.8461E-03     43.5920E-03
             576               1     209.446E-03     205.420E-03     39.3706E-03     39.4609E-03
             577               1     202.874E-03     205.601E-03     40.5626E-03     39.4054E-03
             578               1     192.422E-03     199.018E-03     36.7026E-03     38.3311E-03
             579               1     190.676E-03     186.737E-03     38.1503E-03     37.6679E-03
             580               1     171.788E-03     196.170E-03     36.2833E-03     36.1162E-03
             581               1     200.876E-03     166.231E-03     34.2303E-03     34.9886E-03
             582               1     150.979E-03     175.760E-03     32.3678E-03     32.8616E-03
             583               1     158.117E-03     192.373E-03     47.3215E-03     44.2212E-03
             584               1     201.267E-03     158.927E-03     44.8878E-03     42.7997E-03
             585               1     151.685E-03     178.523E-03     40.8963E-03     42.3549E-03
             586               1     154.178E-03     151.521E-03     39.0545E-03     39.0817E-03
             587               1     148.175E-03     149.465E-03     39.8268E-03     39.1398E-03
             588               1     137.664E-03     142.788E-03     37.1641E-03     38.3834E-03
             589               1     134.992E-03     132.513E-03     38.1243E-03     37.7833E-03
             590               1     121.113E-03     134.646E-03     36.9156E-03     37.1228E-03
             591               1     133.615E-03     115.789E-03     35.9435E-03     36.1494E-03
             592               1     105.552E-03     116.115E-03     34.8637E-03     34.6694E-03
             593               1     112.444E-03     133.003E-03     43.8148E-03     41.3556E-03
             594               1     135.497E-03     109.810E-03     42.1281E-03     40.5264E-03
             595               1     103.189E-03     118.692E-03     39.3290E-03     40.4982E-03
             596               1     101.262E-03     100.205E-03     38.1486E-03     37.9667E-03
             597               1     96.7640E-03     96.4595E-03     38.4496E-03     38.3720E-03
             598               1     87.6476E-03     90.7339E-03     37.0996E-03     37.5981E-03
             599               1     84.7242E-03     84.9132E-03     37.5839E-03     37.7118E-03
             600               1     79.3588E-03     79.6991E-03     37.1975E-03     37.3889E-03
             601               1     74.9183E-03     76.7531E-03     37.4954E-03     37.8647E-03
             602               1     72.8582E-03     71.4739E-03     37.5972E-03     37.2384E-03
             603               1     69.8545E-03     67.0580E-03     37.7869E-03     36.7121E-03
             604               1     73.4768E-03     75.6765E-03     41.4080E-03     40.3795E-03
             605               1     74.4615E-03     71.6961E-03     40.7659E-03     40.8798E-03
             606               1     70.3720E-03     71.9668E-03     40.5119E-03     40.8129E-03
             607               1     70.1513E-03     68.7408E-03     40.3847E-03     39.6308E-03
             608               1     222.039E-03     240.949E-03     71.6566E-03     62.6083E-03
             609               1     242.548E-03     201.935E-03     65.3049E-03     60.7936E-03
             610               1     193.221E-03     215.041E-03     45.9192E-03     51.3166E-03
             611               1     202.394E-03     192.081E-03     48.7339E-03     46.2811E-03
             612               1     191.525E-03     193.496E-03     45.2126E-03     46.4294E-03
             613               1     187.121E-03     187.918E-03     44.1816E-03     43.7927E-03
             614               1     182.935E-03     178.746E-03     42.3149E-03     44.4934E-03
             615               1     171.857E-03     183.226E-03     44.4007E-03     40.7622E-03
             616               1     180.891E-03     156.796E-03     33.5160E-03     35.7885E-03
             617               1     150.454E-03     170.193E-03     24.3037E-03     30.6599E-03
             618               1     175.394E-03     188.043E-03     64.9183E-03     58.2002E-03
             619               1     188.391E-03     159.148E-03     61.0272E-03     57.5282E-03
             620               1     148.519E-03     164.585E-03     46.2124E-03     50.2544E-03
             621               1     153.869E-03     146.277E-03     48.3023E-03     46.5340E-03
             622               1     143.788E-03     145.481E-03     45.5568E-03     46.5315E-03
             623               1     139.296E-03     139.762E-03     44.8136E-03     44.7000E-03
             624               1     134.308E-03     132.742E-03     43.7836E-03     45.2125E-03
             625               1     126.768E-03     132.258E-03     44.9453E-03     42.8861E-03
             626               1     126.882E-03     115.303E-03     38.9515E-03     40.2001E-03
             627               1     105.506E-03     116.621E-03     32.1283E-03     36.0009E-03
             628               1     128.831E-03     134.955E-03     57.2663E-03     52.9589E-03
             629               1     134.893E-03     117.896E-03     55.9321E-03     53.4544E-03
             630               1     106.823E-03     116.344E-03     45.8481E-03     48.5357E-03
             631               1     108.249E-03     103.939E-03     47.1650E-03     46.1499E-03
             632               1     100.362E-03     101.700E-03     45.0679E-03     45.8313E-03
             633               1     96.5339E-03     97.0081E-03     44.7272E-03     45.2615E-03
             634               1     92.8044E-03     93.5548E-03     44.7163E-03     44.9033E-03
             635               1     90.1625E-03     90.6273E-03     44.9253E-03     45.5139E-03
             636               1     86.7960E-03     87.6186E-03     45.1949E-03     44.8813E-03
             637               1     85.4845E-03     84.4290E-03     45.3681E-03     45.1595E-03
             638               1     76.2575E-03     77.2972E-03     41.3231E-03     42.1387E-03
             639               1     89.1464E-03     89.8880E-03     50.1574E-03     49.2927E-03
             640               1     92.0692E-03     89.4501E-03     51.9005E-03     51.1880E-03
             641               1     86.2772E-03     87.3694E-03     49.7646E-03     50.1599E-03
             642               1     82.4431E-03     82.3863E-03     47.5784E-03     47.4878E-03
             643               1     553.902E-06     567.947E-06     291.005E-06     296.911E-06
             644               1     620.558E-06     645.570E-06     342.920E-06     344.653E-06
             645               1     605.463E-06     631.429E-06     334.088E-06     338.718E-06
             646               1     599.711E-06     632.244E-06     333.199E-06     337.212E-06
             647               1     595.646E-06     633.932E-06     333.726E-06     337.182E-06
             648               1     591.527E-06     637.696E-06     333.325E-06     337.620E-06
             649               1     588.496E-06     638.956E-06     333.702E-06     337.217E-06
             650               1     585.255E-06     642.339E-06     333.415E-06     337.504E-06
             651               1     582.889E-06     644.320E-06     333.549E-06     337.368E-06
             652               1     581.101E-06     647.187E-06     333.612E-06     337.318E-06
             653               1     578.998E-06     649.892E-06     333.318E-06     337.607E-06
             654               1     579.110E-06     652.284E-06     333.932E-06     337.052E-06
             655               1     576.872E-06     655.704E-06     332.974E-06     338.000E-06
             656               1     579.537E-06     657.797E-06     334.509E-06     336.711E-06
             657               1     576.815E-06     661.910E-06     332.552E-06     338.676E-06
             658               1     582.955E-06     664.483E-06     335.621E-06     336.630E-06
             659               1     579.834E-06     668.564E-06     332.376E-06     339.487E-06
             660               1     591.489E-06     676.012E-06     338.307E-06     339.000E-06
             661               1     601.998E-06     684.620E-06     343.289E-06     350.027E-06
             662               1     698.276E-06     684.451E-06     403.148E-06     395.121E-06
             663               1     591.420E-06     616.820E-06     341.336E-06     355.960E-06
             664               1     580.762E-06     590.358E-06     334.939E-06     340.402E-06
             665               1     582.923E-06     596.394E-06     335.830E-06     343.482E-06
             666               1     583.317E-06     598.591E-06     335.560E-06     344.230E-06
             667               1     586.130E-06     597.744E-06     336.564E-06     343.089E-06
             668               1     585.551E-06     600.948E-06     335.471E-06     344.173E-06
             669               1     588.491E-06     601.088E-06     336.299E-06     343.350E-06
             670               1     589.518E-06     603.561E-06     335.885E-06     343.763E-06
             671               1     591.295E-06     605.712E-06     335.782E-06     343.867E-06
             672               1     594.706E-06     606.644E-06     336.517E-06     343.132E-06
             673               1     594.520E-06     611.607E-06     334.999E-06     344.650E-06
             674               1     601.296E-06     609.986E-06     337.493E-06     342.156E-06
             675               1     597.933E-06     618.985E-06     333.807E-06     345.838E-06
             676               1     609.285E-06     613.513E-06     338.849E-06     340.797E-06
             677               1     602.136E-06     627.520E-06     332.534E-06     347.233E-06
             678               1     617.083E-06     618.583E-06     339.664E-06     339.925E-06
             679               1     607.306E-06     630.452E-06     331.129E-06     344.613E-06
             680               1     623.665E-06     638.666E-06     339.683E-06     347.677E-06
             681               1     567.124E-06     578.968E-06     296.425E-06     306.834E-06
             682               1     642.571E-06     645.465E-06     350.535E-06     352.831E-06
             683               1     636.543E-06     624.499E-06     342.382E-06     346.530E-06
             684               1     637.816E-06     618.764E-06     341.316E-06     345.301E-06
             685               1     639.996E-06     614.397E-06     341.843E-06     345.343E-06
             686               1     642.410E-06     611.852E-06     341.471E-06     345.771E-06
             687               1     644.903E-06     607.719E-06     341.863E-06     345.371E-06
             688               1     647.304E-06     605.647E-06     341.570E-06     345.661E-06
             689               1     649.672E-06     603.011E-06     341.709E-06     345.526E-06
             690               1     652.628E-06     601.167E-06     341.756E-06     345.466E-06
             691               1     654.391E-06     600.229E-06     341.472E-06     345.754E-06
             692               1     658.431E-06     598.357E-06     342.019E-06     345.149E-06
             693               1     658.897E-06     599.541E-06     341.084E-06     346.093E-06
             694               1     664.843E-06     597.017E-06     342.348E-06     344.583E-06
             695               1     663.024E-06     601.103E-06     340.450E-06     346.502E-06
             696               1     671.596E-06     596.837E-06     342.385E-06     343.523E-06
             697               1     666.096E-06     603.867E-06     339.137E-06     346.178E-06
             698               1     675.726E-06     596.633E-06     340.636E-06     341.398E-06
             699               1     686.862E-06     618.908E-06     345.514E-06     350.544E-06
             700               1     40.7911E-03     38.9593E-03    -15.6737E-03    -17.6247E-03
             701               1     40.7805E-03     40.9233E-03    -23.1778E-03    -23.5211E-03
             702               1     42.3278E-03     42.6866E-03    -24.3946E-03    -24.5778E-03
             703               1     48.0412E-03     48.2782E-03    -27.6689E-03    -27.6955E-03
             704               1     49.8176E-03     50.0701E-03    -28.6900E-03    -28.7185E-03
             705               1     53.0143E-03     53.1767E-03    -30.5633E-03    -30.5613E-03
             706               1     53.6917E-03     53.7936E-03    -30.9869E-03    -30.9868E-03
             707               1     55.3556E-03     55.3851E-03    -31.9572E-03    -31.9560E-03
             708               1     55.4930E-03     55.4321E-03    -32.0081E-03    -32.0029E-03
             709               1     56.3737E-03     56.2420E-03    -32.4520E-03    -32.4518E-03
             710               1     56.2813E-03     56.0530E-03    -32.2852E-03    -32.2800E-03
             711               1     56.7580E-03     56.4494E-03    -32.4120E-03    -32.4076E-03
             712               1     56.4111E-03     56.0237E-03    -32.0156E-03    -32.0171E-03
             713               1     56.5347E-03     56.0124E-03    -31.8599E-03    -31.8321E-03
             714               1     55.5763E-03     55.0722E-03    -31.0484E-03    -31.0808E-03
             715               1     55.0619E-03     54.2233E-03    -30.4891E-03    -30.3815E-03
             716               1     52.6847E-03     52.1229E-03    -28.8974E-03    -28.9948E-03
             717               1     50.9054E-03     49.5010E-03    -27.7624E-03    -27.4307E-03
             718               1     45.5332E-03     44.8607E-03    -24.8684E-03    -24.9994E-03
             719               1     25.6545E-03     27.5245E-03    -13.1721E-03    -13.4617E-03
             720               1     40.3131E-03     41.5561E-03    -23.0107E-03    -23.8940E-03
             721               1     46.3008E-03     46.8153E-03    -26.4828E-03    -26.7137E-03
             722               1     48.9556E-03     49.3617E-03    -27.9912E-03    -28.1217E-03
             723               1     52.3000E-03     52.5491E-03    -29.9444E-03    -29.9825E-03
             724               1     52.8880E-03     53.0429E-03    -30.4017E-03    -30.4074E-03
             725               1     54.4700E-03     54.5818E-03    -31.3906E-03    -31.3996E-03
             726               1     54.4854E-03     54.4901E-03    -31.4461E-03    -31.4304E-03
             727               1     55.2861E-03     55.2716E-03    -31.9024E-03    -31.9076E-03
             728               1     55.2323E-03     55.1086E-03    -31.8078E-03    -31.7887E-03
             729               1     55.7421E-03     55.5985E-03    -31.9986E-03    -32.0020E-03
             730               1     55.6736E-03     55.4311E-03    -31.7961E-03    -31.7786E-03
             731               1     56.0767E-03     55.7690E-03    -31.8213E-03    -31.8049E-03
             732               1     55.8190E-03     55.5043E-03    -31.4197E-03    -31.4272E-03
             733               1     56.1252E-03     55.5305E-03    -31.2797E-03    -31.1781E-03
             734               1     55.1552E-03     54.9037E-03    -30.4088E-03    -30.5097E-03
             735               1     55.0075E-03     53.8769E-03    -29.9646E-03    -29.6222E-03
             736               1     52.1916E-03     52.0955E-03    -28.2036E-03    -28.4079E-03
             737               1     50.1912E-03     48.3467E-03    -27.0145E-03    -26.2180E-03
             738               1     21.3168E-03     19.7022E-03    -12.2790E-03    -11.3643E-03
             739               1     36.6215E-03     35.9580E-03    -21.0472E-03    -20.7188E-03
             740               1     46.6293E-03     47.1222E-03    -26.5876E-03    -26.8593E-03
             741               1     51.5339E-03     51.6672E-03    -29.2790E-03    -29.3082E-03
             742               1     52.9610E-03     53.1466E-03    -30.2591E-03    -30.3060E-03
             743               1     54.5553E-03     54.6759E-03    -31.2836E-03    -31.3052E-03
             744               1     54.3421E-03     54.3758E-03    -31.3006E-03    -31.2899E-03
             745               1     54.8244E-03     54.8662E-03    -31.6319E-03    -31.6423E-03
             746               1     54.6064E-03     54.5515E-03    -31.5126E-03    -31.4893E-03
             747               1     54.9050E-03     54.8745E-03    -31.6397E-03    -31.6483E-03
             748               1     54.9012E-03     54.7744E-03    -31.5271E-03    -31.5004E-03
             749               1     55.2844E-03     55.1718E-03    -31.5953E-03    -31.5981E-03
             750               1     55.4207E-03     55.2465E-03    -31.4656E-03    -31.4444E-03
             751               1     55.9871E-03     55.7229E-03    -31.5155E-03    -31.4786E-03
             752               1     55.9820E-03     55.8657E-03    -31.2263E-03    -31.2544E-03
             753               1     56.6458E-03     56.0580E-03    -31.1949E-03    -31.0290E-03
             754               1     55.5998E-03     55.8376E-03    -30.3001E-03    -30.5066E-03
             755               1     55.0093E-03     54.1069E-03    -29.5555E-03    -29.1986E-03
             756               1     50.8500E-03     51.6363E-03    -27.2951E-03    -27.6716E-03
             757               1     22.2898E-03     21.1974E-03    -11.5134E-03    -11.0405E-03
             758               1     36.5200E-03     35.7543E-03    -20.1666E-03    -19.7028E-03
             759               1     46.8352E-03     46.1838E-03    -26.3123E-03    -26.0225E-03
             760               1     51.7978E-03     51.8337E-03    -29.3809E-03    -29.3985E-03
             761               1     54.5311E-03     54.5252E-03    -31.0758E-03    -31.0792E-03
             762               1     54.5893E-03     54.5898E-03    -31.3392E-03    -31.3341E-03
             763               1     54.8113E-03     54.8414E-03    -31.5512E-03    -31.5663E-03
             764               1     54.4188E-03     54.3832E-03    -31.4045E-03    -31.3828E-03
             765               1     54.3407E-03     54.3606E-03    -31.3670E-03    -31.3793E-03
             766               1     54.2457E-03     54.1927E-03    -31.2638E-03    -31.2362E-03
             767               1     54.3778E-03     54.3924E-03    -31.2498E-03    -31.2641E-03
             768               1     54.6212E-03     54.5568E-03    -31.2386E-03    -31.2050E-03
             769               1     55.0703E-03     55.0658E-03    -31.2940E-03    -31.3067E-03
             770               1     55.5436E-03     55.5011E-03    -31.3362E-03    -31.3025E-03
             771               1     56.3183E-03     56.2305E-03    -31.4395E-03    -31.4288E-03
             772               1     56.5712E-03     56.7118E-03    -31.3121E-03    -31.3350E-03
             773               1     57.1553E-03     56.9294E-03    -31.1301E-03    -31.0866E-03
             774               1     55.4212E-03     56.2891E-03    -29.8195E-03    -30.1852E-03
             775               1     51.7745E-03     52.4272E-03    -27.2348E-03    -27.5773E-03
             776               1     28.3860E-03     27.1995E-03    -11.2147E-03    -10.5360E-03
             777               1     39.7628E-03     38.5031E-03    -20.4689E-03    -19.9576E-03
             778               1     47.3592E-03     46.8332E-03    -26.0218E-03    -25.7577E-03
             779               1     53.1064E-03     52.7363E-03    -29.8807E-03    -29.7839E-03
             780               1     54.1263E-03     53.9811E-03    -30.9199E-03    -30.8849E-03
             781               1     54.5161E-03     54.4396E-03    -31.2599E-03    -31.2616E-03
             782               1     54.2566E-03     54.1830E-03    -31.2640E-03    -31.2419E-03
             783               1     53.8356E-03     53.8391E-03    -31.0647E-03    -31.0762E-03
             784               1     53.6800E-03     53.6536E-03    -30.9874E-03    -30.9637E-03
             785               1     53.4695E-03     53.5346E-03    -30.8308E-03    -30.8467E-03
             786               1     53.6709E-03     53.6867E-03    -30.8541E-03    -30.8237E-03
             787               1     53.8312E-03     53.9669E-03    -30.8137E-03    -30.8419E-03
             788               1     54.3969E-03     54.4493E-03    -30.9638E-03    -30.9170E-03
             789               1     54.9229E-03     55.1380E-03    -31.0186E-03    -31.0748E-03
             790               1     55.7341E-03     55.8409E-03    -31.2593E-03    -31.1839E-03
             791               1     56.4590E-03     56.7580E-03    -31.2613E-03    -31.3784E-03
             792               1     56.7870E-03     57.1220E-03    -31.1707E-03    -31.1280E-03
             793               1     56.7392E-03     57.1700E-03    -30.3671E-03    -30.6313E-03
             794               1     53.4742E-03     54.7537E-03    -27.4676E-03    -28.1232E-03
             795               1     37.2625E-03     35.7853E-03    -11.7476E-03    -10.9253E-03
             796               1     44.0211E-03     43.2781E-03    -20.6571E-03    -20.2666E-03
             797               1     51.7335E-03     51.1327E-03    -27.7137E-03    -27.6926E-03
             798               1     52.4133E-03     51.9161E-03    -29.5140E-03    -29.3744E-03
             799               1     53.1720E-03     52.8934E-03    -30.2344E-03    -30.2149E-03
             800               1     53.4676E-03     53.2658E-03    -30.7019E-03    -30.6581E-03
             801               1     52.8931E-03     52.8142E-03    -30.4536E-03    -30.4588E-03
             802               1     52.9362E-03     52.8798E-03    -30.5526E-03    -30.5301E-03
             803               1     52.4483E-03     52.5004E-03    -30.2803E-03    -30.2935E-03
             804               1     52.6533E-03     52.7045E-03    -30.3625E-03    -30.3398E-03
             805               1     52.5125E-03     52.6948E-03    -30.2072E-03    -30.2315E-03
             806               1     53.0150E-03     53.1552E-03    -30.3731E-03    -30.3370E-03
             807               1     53.2082E-03     53.5514E-03    -30.3132E-03    -30.3727E-03
             808               1     54.0448E-03     54.2403E-03    -30.6071E-03    -30.5297E-03
             809               1     54.4442E-03     55.0175E-03    -30.5419E-03    -30.6954E-03
             810               1     55.5132E-03     55.6994E-03    -30.9233E-03    -30.7370E-03
             811               1     55.8366E-03     56.7101E-03    -30.5419E-03    -30.8755E-03
             812               1     56.3337E-03     56.4865E-03    -30.3675E-03    -30.0273E-03
             813               1     57.0698E-03     57.4975E-03    -29.1204E-03    -29.3477E-03
             814               1     49.5569E-03     49.8242E-03    -12.0430E-03    -12.0469E-03
             815               1     55.4536E-03     54.5558E-03    -25.1701E-03    -25.4722E-03
             816               1     51.3224E-03     50.4437E-03    -27.6559E-03    -27.5154E-03
             817               1     50.8187E-03     50.2645E-03    -28.1966E-03    -28.2116E-03
             818               1     51.6606E-03     51.2129E-03    -29.3846E-03    -29.3062E-03
             819               1     51.0246E-03     50.7803E-03    -29.2117E-03    -29.2081E-03
             820               1     51.6349E-03     51.4789E-03    -29.7323E-03    -29.7063E-03
             821               1     51.0529E-03     51.0291E-03    -29.4534E-03    -29.4610E-03
             822               1     51.4606E-03     51.4933E-03    -29.7103E-03    -29.6953E-03
             823               1     51.1229E-03     51.2848E-03    -29.4909E-03    -29.5052E-03
             824               1     51.6016E-03     51.7925E-03    -29.6954E-03    -29.6755E-03
             825               1     51.5387E-03     51.8977E-03    -29.5473E-03    -29.5802E-03
             826               1     52.2255E-03     52.5466E-03    -29.7939E-03    -29.7524E-03
             827               1     52.3265E-03     52.9397E-03    -29.6402E-03    -29.7359E-03
             828               1     53.2767E-03     53.6550E-03    -29.9735E-03    -29.8576E-03
             829               1     53.3031E-03     54.2887E-03    -29.6069E-03    -29.8559E-03
             830               1     54.5678E-03     54.8112E-03    -30.0090E-03    -29.6507E-03
             831               1     54.6222E-03     55.9394E-03    -29.0888E-03    -29.4950E-03
             832               1     56.4616E-03     56.1930E-03    -29.3081E-03    -28.3013E-03
             833               1     72.6464E-03     69.9370E-03    -18.9949E-03    -20.0056E-03
             834               1     54.7241E-03     53.0445E-03    -26.0766E-03    -25.9798E-03
             835               1     48.1262E-03     47.0594E-03    -24.7828E-03    -24.9028E-03
             836               1     49.3076E-03     48.4331E-03    -27.2563E-03    -27.1699E-03
             837               1     48.1699E-03     47.6581E-03    -27.1595E-03    -27.1792E-03
             838               1     49.6285E-03     49.2566E-03    -28.3745E-03    -28.3442E-03
             839               1     49.1079E-03     48.9325E-03    -28.2287E-03    -28.2354E-03
             840               1     49.9498E-03     49.8882E-03    -28.8097E-03    -28.7998E-03
             841               1     49.5505E-03     49.6336E-03    -28.6074E-03    -28.6137E-03
             842               1     50.1262E-03     50.3060E-03    -28.9223E-03    -28.9151E-03
             843               1     49.9175E-03     50.2397E-03    -28.7411E-03    -28.7508E-03
             844               1     50.5115E-03     50.9096E-03    -28.9799E-03    -28.9674E-03
             845               1     50.4641E-03     51.0352E-03    -28.8004E-03    -28.8272E-03
             846               1     51.1769E-03     51.7641E-03    -29.0244E-03    -28.9909E-03
             847               1     51.0901E-03     51.9559E-03    -28.6990E-03    -28.7810E-03
             848               1     51.9512E-03     52.6641E-03    -28.8899E-03    -28.7778E-03
             849               1     51.5831E-03     52.8445E-03    -28.0999E-03    -28.3002E-03
             850               1     53.0824E-03     53.8270E-03    -28.3417E-03    -27.9395E-03
             851               1     52.9848E-03     54.9055E-03    -26.5141E-03    -26.8423E-03
             852               1     22.2365E-03     29.8016E-03    -12.4667E-03    -15.6640E-03
             853               1     38.3661E-03     41.5623E-03    -19.9228E-03    -20.8680E-03
             854               1     45.2028E-03     46.7220E-03    -23.6104E-03    -23.9198E-03
             855               1     50.9845E-03     51.9478E-03    -27.3980E-03    -27.6061E-03
             856               1     53.9272E-03     54.4484E-03    -29.7534E-03    -29.8205E-03
             857               1     57.1930E-03     57.5328E-03    -32.3065E-03    -32.3570E-03
             858               1     58.6043E-03     58.7561E-03    -33.6001E-03    -33.6064E-03
             859               1     60.8759E-03     60.9243E-03    -35.1335E-03    -35.1436E-03
             860               1     61.8744E-03     61.7732E-03    -35.6166E-03    -35.6010E-03
             861               1     63.7783E-03     63.5918E-03    -36.2985E-03    -36.2954E-03
             862               1     64.8288E-03     64.4852E-03    -36.1284E-03    -36.1025E-03
             863               1     66.6068E-03     66.1659E-03    -36.0726E-03    -36.0549E-03
             864               1     67.7030E-03     67.0920E-03    -35.2566E-03    -35.2230E-03
             865               1     69.2436E-03     68.4756E-03    -34.4456E-03    -34.3946E-03
             866               1     70.0231E-03     69.0699E-03    -32.8446E-03    -32.8015E-03
             867               1     70.8361E-03     69.5877E-03    -31.1110E-03    -30.9947E-03
             868               1     70.5959E-03     69.0939E-03    -28.4922E-03    -28.4179E-03
             869               1     69.7343E-03     67.7210E-03    -25.5733E-03    -25.3585E-03
             870               1     67.0324E-03     64.5787E-03    -21.6386E-03    -21.4936E-03
             871               1     32.3599E-03     30.2065E-03    -14.4427E-03    -15.2949E-03
             872               1     42.8074E-03     45.5664E-03    -20.3657E-03    -22.1053E-03
             873               1     49.5011E-03     51.2408E-03    -24.4127E-03    -25.2495E-03
             874               1     52.6855E-03     53.6327E-03    -27.0759E-03    -27.4403E-03
             875               1     55.3635E-03     56.0534E-03    -29.7498E-03    -30.0051E-03
             876               1     56.2220E-03     56.5455E-03    -31.2230E-03    -31.2987E-03
             877               1     57.8578E-03     58.0814E-03    -32.9227E-03    -32.9933E-03
             878               1     58.3287E-03     58.3320E-03    -33.5904E-03    -33.5719E-03
             879               1     59.8538E-03     59.8354E-03    -34.4733E-03    -34.4858E-03
             880               1     60.7637E-03     60.5504E-03    -34.5702E-03    -34.5129E-03
             881               1     62.5822E-03     62.3645E-03    -34.8070E-03    -34.7899E-03
             882               1     64.0678E-03     63.6694E-03    -34.4114E-03    -34.3291E-03
             883               1     66.2379E-03     65.7778E-03    -34.0759E-03    -34.0095E-03
             884               1     68.0285E-03     67.4582E-03    -33.1089E-03    -33.0057E-03
             885               1     70.2574E-03     69.4711E-03    -32.1369E-03    -31.9653E-03
             886               1     71.7755E-03     71.0290E-03    -30.3942E-03    -30.2673E-03
             887               1     73.2595E-03     72.1513E-03    -28.5739E-03    -28.2384E-03
             888               1     73.4277E-03     72.5353E-03    -25.8202E-03    -25.6457E-03
             889               1     72.4181E-03     71.3997E-03    -22.7605E-03    -22.3182E-03
             890               1     35.3634E-03     34.2852E-03    -12.9722E-03    -12.1209E-03
             891               1     46.8031E-03     45.0661E-03    -20.5917E-03    -20.5957E-03
             892               1     52.2274E-03     52.9317E-03    -24.4100E-03    -25.1763E-03
             893               1     55.5349E-03     56.0600E-03    -27.7226E-03    -28.1001E-03
             894               1     56.2618E-03     56.6486E-03    -29.4724E-03    -29.7040E-03
             895               1     57.3285E-03     57.6168E-03    -31.4091E-03    -31.5612E-03
             896               1     56.9359E-03     57.0178E-03    -32.1560E-03    -32.1832E-03
             897               1     57.7130E-03     57.8022E-03    -33.1545E-03    -33.2015E-03
             898               1     57.9369E-03     57.8318E-03    -33.3645E-03    -33.3118E-03
             899               1     59.2772E-03     59.2427E-03    -33.7504E-03    -33.7536E-03
             900               1     60.6057E-03     60.3911E-03    -33.6213E-03    -33.5293E-03
             901               1     62.8067E-03     62.6481E-03    -33.5880E-03    -33.5516E-03
             902               1     65.0494E-03     64.7867E-03    -33.1130E-03    -32.9949E-03
             903               1     67.9797E-03     67.6455E-03    -32.6873E-03    -32.5710E-03
             904               1     70.5713E-03     70.3700E-03    -31.6783E-03    -31.5645E-03
             905               1     73.6054E-03     73.1176E-03    -30.6997E-03    -30.4412E-03
             906               1     75.5951E-03     75.6376E-03    -28.8026E-03    -28.7682E-03
             907               1     77.1479E-03     76.9504E-03    -26.8014E-03    -26.4536E-03
             908               1     76.6497E-03     77.4567E-03    -23.4955E-03    -23.7850E-03
             909               1     42.5187E-03     40.4956E-03    -11.6420E-03    -11.7301E-03
             910               1     48.7306E-03     47.6606E-03    -18.8725E-03    -18.5998E-03
             911               1     54.7859E-03     53.5509E-03    -24.6349E-03    -24.5085E-03
             912               1     56.7190E-03     56.6663E-03    -27.3776E-03    -27.6644E-03
             913               1     58.2220E-03     58.1489E-03    -30.1073E-03    -30.2296E-03
             914               1     57.2430E-03     57.2421E-03    -31.0513E-03    -31.1308E-03
             915               1     57.3919E-03     57.4337E-03    -32.2535E-03    -32.3236E-03
             916               1     56.6160E-03     56.5367E-03    -32.4811E-03    -32.4491E-03
             917               1     57.1211E-03     57.1758E-03    -32.9082E-03    -32.9360E-03
             918               1     57.7800E-03     57.6817E-03    -32.8846E-03    -32.8032E-03
             919               1     59.4507E-03     59.5185E-03    -32.9692E-03    -32.9723E-03
             920               1     61.5888E-03     61.5357E-03    -32.8019E-03    -32.6894E-03
             921               1     64.5186E-03     64.5728E-03    -32.6843E-03    -32.6520E-03
             922               1     67.6215E-03     67.7309E-03    -32.2640E-03    -32.1465E-03
             923               1     71.4225E-03     71.4309E-03    -31.8756E-03    -31.7673E-03
             924               1     74.5832E-03     75.1033E-03    -30.8121E-03    -30.8044E-03
             925               1     78.0832E-03     78.2475E-03    -29.7338E-03    -29.5407E-03
             926               1     79.9145E-03     81.0941E-03    -27.2835E-03    -27.6252E-03
             927               1     80.4428E-03     81.4776E-03    -24.3095E-03    -24.3816E-03
             928               1     49.6027E-03     47.3919E-03    -10.7048E-03    -9.88318E-03
             929               1     53.2481E-03     51.3133E-03    -18.3989E-03    -18.0598E-03
             930               1     56.1611E-03     55.1111E-03    -23.4061E-03    -23.2723E-03
             931               1     59.1131E-03     58.0117E-03    -28.0489E-03    -27.8732E-03
             932               1     58.1207E-03     57.7320E-03    -29.6503E-03    -29.6973E-03
             933               1     58.2867E-03     57.9763E-03    -31.4557E-03    -31.4683E-03
             934               1     56.5166E-03     56.3040E-03    -31.7357E-03    -31.7068E-03
             935               1     56.1692E-03     56.1531E-03    -32.2011E-03    -32.2331E-03
             936               1     55.8459E-03     55.7585E-03    -32.1776E-03    -32.1087E-03
             937               1     56.6102E-03     56.7784E-03    -32.2417E-03    -32.2714E-03
             938               1     58.1661E-03     58.2327E-03    -32.2031E-03    -32.1087E-03
             939               1     60.5290E-03     60.8536E-03    -32.1829E-03    -32.2141E-03
             940               1     63.6138E-03     63.8975E-03    -32.1345E-03    -32.0220E-03
             941               1     67.4002E-03     67.8297E-03    -32.0642E-03    -32.0886E-03
             942               1     71.2214E-03     71.9086E-03    -31.7549E-03    -31.6903E-03
             943               1     75.8308E-03     76.3089E-03    -31.4082E-03    -31.3933E-03
             944               1     79.1759E-03     80.5902E-03    -30.0330E-03    -30.2875E-03
             945               1     82.8363E-03     83.6165E-03    -28.4973E-03    -28.4600E-03
             946               1     84.5093E-03     86.1068E-03    -24.6285E-03    -25.4022E-03
             947               1     56.7378E-03     55.0810E-03    -9.82716E-03    -9.36255E-03
             948               1     58.1825E-03     56.2551E-03    -17.2724E-03    -16.7845E-03
             949               1     60.3922E-03     58.5606E-03    -24.2250E-03    -23.8367E-03
             950               1     59.1987E-03     58.1407E-03    -27.2329E-03    -27.0678E-03
             951               1     59.8842E-03     58.8959E-03    -30.3318E-03    -30.1815E-03
             952               1     57.0908E-03     56.5169E-03    -30.8386E-03    -30.7431E-03
             953               1     56.0991E-03     55.8004E-03    -31.4451E-03    -31.4369E-03
             954               1     54.7210E-03     54.4906E-03    -31.4144E-03    -31.3352E-03
             955               1     54.4423E-03     54.5523E-03    -31.3878E-03    -31.4206E-03
             956               1     55.1222E-03     55.2020E-03    -31.3654E-03    -31.2861E-03
             957               1     56.5556E-03     57.0009E-03    -31.2922E-03    -31.3535E-03
             958               1     59.1754E-03     59.5550E-03    -31.4036E-03    -31.3096E-03
             959               1     62.3675E-03     63.0973E-03    -31.4138E-03    -31.5181E-03
             960               1     66.3284E-03     67.0616E-03    -31.5858E-03    -31.4816E-03
             961               1     70.9449E-03     71.8494E-03    -31.5967E-03    -31.7483E-03
             962               1     75.3129E-03     76.6067E-03    -31.3846E-03    -31.3759E-03
             963               1     80.8530E-03     81.6807E-03    -30.9786E-03    -31.1032E-03
             964               1     84.4207E-03     86.3970E-03    -28.8600E-03    -29.3826E-03
             965               1     88.7391E-03     89.7549E-03    -26.4880E-03    -26.3871E-03
             966               1     66.3877E-03     63.8698E-03    -9.01281E-03    -8.42365E-03
             967               1     65.1235E-03     63.1091E-03    -18.4607E-03    -17.9003E-03
             968               1     62.6270E-03     60.9787E-03    -23.5291E-03    -23.2089E-03
             969               1     63.0258E-03     61.3456E-03    -28.7124E-03    -28.4110E-03
             970               1     58.2733E-03     57.1555E-03    -29.5941E-03    -29.3429E-03
             971               1     56.5952E-03     55.8197E-03    -30.4091E-03    -30.3192E-03
             972               1     54.1298E-03     53.5774E-03    -30.4514E-03    -30.3201E-03
             973               1     52.8017E-03     52.6781E-03    -30.3086E-03    -30.3169E-03
             974               1     52.5243E-03     52.4829E-03    -30.2857E-03    -30.2057E-03
             975               1     52.8709E-03     53.2713E-03    -30.0831E-03    -30.1417E-03
             976               1     54.7371E-03     55.1403E-03    -30.2221E-03    -30.1504E-03
             977               1     57.0317E-03     57.8898E-03    -30.1688E-03    -30.2896E-03
             978               1     60.6520E-03     61.4366E-03    -30.5197E-03    -30.4283E-03
             979               1     64.6318E-03     65.8526E-03    -30.6046E-03    -30.8241E-03
             980               1     69.3568E-03     70.5316E-03    -31.0556E-03    -30.9297E-03
             981               1     74.8340E-03     76.1742E-03    -31.1100E-03    -31.4241E-03
             982               1     79.8485E-03     81.5329E-03    -31.0226E-03    -30.9424E-03
             983               1     87.2034E-03     87.9322E-03    -30.5758E-03    -30.6912E-03
             984               1     91.8163E-03     93.7434E-03    -27.2812E-03    -28.0152E-03
             985               1     75.3436E-03     74.0660E-03    -9.60215E-03    -8.95291E-03
             986               1     72.2338E-03     70.1206E-03    -18.1876E-03    -17.8905E-03
             987               1     70.6170E-03     68.4143E-03    -27.1243E-03    -26.7313E-03
             988               1     61.1729E-03     59.4921E-03    -28.2539E-03    -27.8087E-03
             989               1     57.8277E-03     56.5479E-03    -28.9338E-03    -28.7918E-03
             990               1     53.9940E-03     52.9683E-03    -29.1747E-03    -28.9501E-03
             991               1     51.4476E-03     50.9415E-03    -28.8390E-03    -28.8128E-03
             992               1     50.2631E-03     49.9451E-03    -28.8954E-03    -28.7942E-03
             993               1     49.4773E-03     49.6711E-03    -28.5389E-03    -28.5756E-03
             994               1     50.4929E-03     50.8134E-03    -28.6852E-03    -28.6260E-03
             995               1     51.7814E-03     52.6027E-03    -28.5133E-03    -28.6086E-03
             996               1     54.7555E-03     55.5838E-03    -28.8699E-03    -28.8083E-03
             997               1     57.8893E-03     59.2316E-03    -28.8890E-03    -29.0834E-03
             998               1     62.3671E-03     63.5626E-03    -29.5071E-03    -29.3971E-03
             999               1     67.0262E-03     68.7386E-03    -29.6239E-03    -29.9770E-03
            1000               1     72.5673E-03     74.0295E-03    -30.4448E-03    -30.1876E-03
            1001               1     79.1112E-03     80.7922E-03    -30.4667E-03    -30.9365E-03
            1002               1     85.4189E-03     87.0867E-03    -30.8905E-03    -30.3698E-03
            1003               1     96.3612E-03     96.6446E-03    -30.6033E-03    -30.5056E-03
            1004               1     91.7651E-03     88.7583E-03    -9.26142E-03    -9.11537E-03
            1005               1     87.0575E-03     84.6464E-03    -26.2712E-03    -25.7925E-03
            1006               1     67.6172E-03     65.6069E-03    -27.5634E-03    -26.9547E-03
            1007               1     60.4100E-03     58.7381E-03    -26.9202E-03    -26.7966E-03
            1008               1     54.6871E-03     53.1736E-03    -27.5458E-03    -27.2482E-03
            1009               1     50.3326E-03     49.3510E-03    -26.7995E-03    -26.7618E-03
            1010               1     48.2793E-03     47.5498E-03    -27.0899E-03    -26.9676E-03
            1011               1     46.2886E-03     46.1159E-03    -26.5802E-03    -26.5927E-03
            1012               1     46.4751E-03     46.5759E-03    -26.8023E-03    -26.7497E-03
            1013               1     46.7407E-03     47.3725E-03    -26.5232E-03    -26.5765E-03
            1014               1     48.9405E-03     49.7517E-03    -26.8511E-03    -26.8147E-03
            1015               1     51.2268E-03     52.5270E-03    -26.7813E-03    -26.8971E-03
            1016               1     55.1103E-03     56.4142E-03    -27.3249E-03    -27.2694E-03
            1017               1     58.9697E-03     60.7578E-03    -27.3956E-03    -27.6321E-03
            1018               1     64.1927E-03     65.7610E-03    -28.2533E-03    -28.1013E-03
            1019               1     69.4701E-03     71.5573E-03    -28.3196E-03    -28.7491E-03
            1020               1     76.0850E-03     77.7065E-03    -29.6519E-03    -29.1535E-03
            1021               1     83.9159E-03     85.9464E-03    -29.5102E-03    -30.0758E-03
            1022               1     92.6981E-03     94.1544E-03    -31.4221E-03    -29.9777E-03
            1023               1     117.075E-03     116.543E-03    -22.3558E-03    -22.0310E-03
            1024               1     80.3463E-03     78.6650E-03    -28.4329E-03    -27.7865E-03
            1025               1     64.4096E-03     62.6646E-03    -23.7249E-03    -23.7686E-03
            1026               1     56.8921E-03     55.0600E-03    -25.3695E-03    -25.1224E-03
            1027               1     49.7393E-03     48.2400E-03    -23.9820E-03    -23.9923E-03
            1028               1     46.7989E-03     45.5721E-03    -24.7426E-03    -24.6497E-03
            1029               1     43.3889E-03     42.6805E-03    -24.1193E-03    -24.1268E-03
            1030               1     42.7450E-03     42.4611E-03    -24.5309E-03    -24.4967E-03
            1031               1     41.9465E-03     42.2227E-03    -24.1945E-03    -24.2113E-03
            1032               1     43.3176E-03     43.9889E-03    -24.5373E-03    -24.5210E-03
            1033               1     44.7730E-03     45.9177E-03    -24.4071E-03    -24.4411E-03
            1034               1     47.9390E-03     49.3361E-03    -24.8450E-03    -24.8280E-03
            1035               1     51.1626E-03     52.8932E-03    -24.8803E-03    -24.9526E-03
            1036               1     55.7484E-03     57.5642E-03    -25.5136E-03    -25.4723E-03
            1037               1     60.2930E-03     62.3225E-03    -25.6121E-03    -25.7653E-03
            1038               1     66.1953E-03     68.1618E-03    -26.5780E-03    -26.4293E-03
            1039               1     72.1337E-03     74.2761E-03    -26.5208E-03    -26.8272E-03
            1040               1     80.1284E-03     82.1726E-03    -28.3172E-03    -27.7567E-03
            1041               1     88.9919E-03     91.5293E-03    -27.6164E-03    -28.1380E-03
            1042               1     50.1147E-03     63.8297E-03    -8.43899E-03    -12.9769E-03
            1043               1     54.8927E-03     60.4313E-03    -15.9565E-03    -17.5536E-03
            1044               1     60.7938E-03     62.9351E-03    -23.3250E-03    -23.7241E-03
            1045               1     61.4903E-03     62.8530E-03    -27.1169E-03    -27.5490E-03
            1046               1     63.8939E-03     64.2971E-03    -31.7284E-03    -31.8065E-03
            1047               1     63.6502E-03     63.9768E-03    -34.0409E-03    -34.1747E-03
            1048               1     65.7609E-03     65.8000E-03    -37.0146E-03    -37.0215E-03
            1049               1     66.2279E-03     66.2803E-03    -38.1390E-03    -38.1674E-03
            1050               1     69.1782E-03     69.1399E-03    -39.7832E-03    -39.7638E-03
            1051               1     71.1140E-03     71.0627E-03    -39.8836E-03    -39.8695E-03
            1052               1     75.1870E-03     75.0491E-03    -40.3630E-03    -40.3185E-03
            1053               1     78.5290E-03     78.3428E-03    -39.4835E-03    -39.4523E-03
            1054               1     83.4680E-03     83.0768E-03    -38.8569E-03    -38.7631E-03
            1055               1     87.6218E-03     87.1782E-03    -36.8922E-03    -36.8613E-03
            1056               1     92.8601E-03     91.9659E-03    -35.0875E-03    -34.8978E-03
            1057               1     96.9948E-03     96.0950E-03    -31.7850E-03    -31.7807E-03
            1058               1     101.809E-03     100.080E-03    -28.6180E-03    -28.2688E-03
            1059               1     104.881E-03     103.284E-03    -23.5479E-03    -23.6364E-03
            1060               1     108.373E-03     105.609E-03    -18.7693E-03    -18.2467E-03
            1061               1     69.3985E-03     61.9443E-03    -16.1053E-03    -17.4208E-03
            1062               1     68.4948E-03     70.7330E-03    -17.8907E-03    -20.4783E-03
            1063               1     66.0445E-03     68.1585E-03    -22.1830E-03    -23.6990E-03
            1064               1     66.3680E-03     67.1755E-03    -26.9219E-03    -27.4508E-03
            1065               1     63.6696E-03     64.5533E-03    -29.3788E-03    -29.9427E-03
            1066               1     63.5902E-03     63.7243E-03    -32.7261E-03    -32.8436E-03
            1067               1     61.8142E-03     62.0609E-03    -34.0815E-03    -34.2554E-03
            1068               1     63.0680E-03     63.0316E-03    -36.1239E-03    -36.1170E-03
            1069               1     63.6148E-03     63.6390E-03    -36.5723E-03    -36.5791E-03
            1070               1     66.9634E-03     66.8945E-03    -37.5042E-03    -37.4336E-03
            1071               1     70.1041E-03     70.0706E-03    -37.1329E-03    -37.0660E-03
            1072               1     75.3949E-03     75.2111E-03    -37.1076E-03    -36.9527E-03
            1073               1     80.3834E-03     80.3234E-03    -35.8627E-03    -35.7701E-03
            1074               1     86.9454E-03     86.4828E-03    -34.9214E-03    -34.6075E-03
            1075               1     92.7163E-03     92.6312E-03    -32.5976E-03    -32.5298E-03
            1076               1     99.6967E-03     98.8598E-03    -30.6549E-03    -30.0866E-03
            1077               1     105.137E-03     105.096E-03    -26.9420E-03    -26.9831E-03
            1078               1     111.533E-03     110.578E-03    -23.7748E-03    -22.9869E-03
            1079               1     115.155E-03     115.574E-03    -18.3601E-03    -18.6945E-03
            1080               1     69.7667E-03     68.8452E-03    -14.2033E-03    -13.3511E-03
            1081               1     76.0764E-03     72.2375E-03    -20.7099E-03    -21.0005E-03
            1082               1     73.5464E-03     73.3184E-03    -23.1962E-03    -24.3820E-03
            1083               1     69.4672E-03     69.9022E-03    -26.1621E-03    -27.0236E-03
            1084               1     67.1717E-03     67.1129E-03    -29.5004E-03    -29.8601E-03
            1085               1     62.8766E-03     63.1897E-03    -31.0301E-03    -31.4119E-03
            1086               1     61.6871E-03     61.5774E-03    -33.3242E-03    -33.3971E-03
            1087               1     59.7308E-03     59.8111E-03    -33.9625E-03    -34.0555E-03
            1088               1     61.2027E-03     61.1640E-03    -35.1889E-03    -35.1483E-03
            1089               1     62.9823E-03     63.0464E-03    -35.1604E-03    -35.1128E-03
            1090               1     67.5659E-03     67.5874E-03    -35.5400E-03    -35.4137E-03
            1091               1     72.5498E-03     72.7436E-03    -34.8812E-03    -34.7721E-03
            1092               1     79.5295E-03     79.4855E-03    -34.5539E-03    -34.2944E-03
            1093               1     86.2757E-03     86.7073E-03    -33.1191E-03    -33.0137E-03
            1094               1     94.5730E-03     94.3910E-03    -32.0639E-03    -31.5914E-03
            1095               1     101.716E-03     102.542E-03    -29.5680E-03    -29.5652E-03
            1096               1     110.121E-03     110.047E-03    -27.5514E-03    -26.9058E-03
            1097               1     116.384E-03     117.818E-03    -23.7659E-03    -24.0029E-03
            1098               1     123.216E-03     124.239E-03    -20.0557E-03    -19.9982E-03
            1099               1     79.6916E-03     75.6425E-03    -12.4125E-03    -12.9050E-03
            1100               1     77.6853E-03     75.9411E-03    -18.9679E-03    -18.8131E-03
            1101               1     77.5515E-03     75.1591E-03    -23.6343E-03    -23.8127E-03
            1102               1     73.7915E-03     72.7700E-03    -26.6971E-03    -27.1729E-03
            1103               1     68.3177E-03     67.9920E-03    -28.7405E-03    -29.1603E-03
            1104               1     64.9538E-03     64.4519E-03    -31.2069E-03    -31.3709E-03
            1105               1     60.2531E-03     60.1799E-03    -32.0017E-03    -32.1742E-03
            1106               1     59.1303E-03     58.9601E-03    -33.3971E-03    -33.4092E-03
            1107               1     58.4047E-03     58.4485E-03    -33.5487E-03    -33.5460E-03
            1108               1     61.1141E-03     61.2407E-03    -34.1356E-03    -34.0678E-03
            1109               1     65.0184E-03     65.3262E-03    -33.8648E-03    -33.7740E-03
            1110               1     71.3780E-03     71.6746E-03    -33.9076E-03    -33.7540E-03
            1111               1     78.3312E-03     79.0321E-03    -33.1748E-03    -33.0595E-03
            1112               1     87.0614E-03     87.3927E-03    -32.7425E-03    -32.4530E-03
            1113               1     95.2458E-03     96.5169E-03    -31.2898E-03    -31.2503E-03
            1114               1     104.974E-03     105.410E-03    -30.1958E-03    -29.7615E-03
            1115               1     113.012E-03     114.969E-03    -27.6467E-03    -27.8419E-03
            1116               1     121.945E-03     123.066E-03    -25.2727E-03    -25.0458E-03
            1117               1     128.936E-03     130.793E-03    -21.5006E-03    -21.9965E-03
            1118               1     84.5929E-03     81.9273E-03    -11.1014E-03    -10.2645E-03
            1119               1     83.7848E-03     80.3508E-03    -17.6238E-03    -17.5879E-03
            1120               1     79.9459E-03     77.8518E-03    -22.9549E-03    -22.8546E-03
            1121               1     75.7478E-03     73.8607E-03    -26.3021E-03    -26.3602E-03
            1122               1     71.1085E-03     69.7722E-03    -29.2556E-03    -29.3785E-03
            1123               1     64.5068E-03     63.8260E-03    -30.4213E-03    -30.5442E-03
            1124               1     60.9806E-03     60.3784E-03    -31.9851E-03    -32.0223E-03
            1125               1     57.2287E-03     57.0183E-03    -32.2393E-03    -32.2505E-03
            1126               1     57.1979E-03     57.2213E-03    -32.8707E-03    -32.8536E-03
            1127               1     58.8944E-03     59.1490E-03    -32.7978E-03    -32.7317E-03
            1128               1     63.5374E-03     64.0342E-03    -32.9777E-03    -32.9222E-03
            1129               1     69.8101E-03     70.5941E-03    -32.7105E-03    -32.6062E-03
            1130               1     78.0179E-03     78.7679E-03    -32.6291E-03    -32.5221E-03
            1131               1     86.6064E-03     88.0251E-03    -32.0271E-03    -31.9446E-03
            1132               1     96.8485E-03     97.7142E-03    -31.6072E-03    -31.4269E-03
            1133               1     106.025E-03     108.219E-03    -30.2319E-03    -30.3253E-03
            1134               1     116.655E-03     117.824E-03    -28.9734E-03    -28.7998E-03
            1135               1     125.374E-03     127.832E-03    -26.2243E-03    -26.6491E-03
            1136               1     133.741E-03     135.847E-03    -23.0374E-03    -23.2059E-03
            1137               1     93.5718E-03     89.9523E-03    -9.11281E-03    -8.89584E-03
            1138               1     87.7009E-03     85.0084E-03    -16.7702E-03    -16.1694E-03
            1139               1     83.7474E-03     80.8304E-03    -21.8553E-03    -21.6983E-03
            1140               1     78.5339E-03     76.2541E-03    -26.6748E-03    -26.4620E-03
            1141               1     71.0754E-03     69.3901E-03    -28.6405E-03    -28.5417E-03
            1142               1     65.9192E-03     64.5589E-03    -30.6952E-03    -30.6529E-03
            1143               1     59.3594E-03     58.5723E-03    -31.0947E-03    -31.0257E-03
            1144               1     56.4353E-03     56.0545E-03    -31.6843E-03    -31.6759E-03
            1145               1     55.1192E-03     55.0894E-03    -31.6816E-03    -31.6093E-03
            1146               1     57.0850E-03     57.5523E-03    -31.8008E-03    -31.8049E-03
            1147               1     61.6973E-03     62.4131E-03    -31.7678E-03    -31.6818E-03
            1148               1     68.4485E-03     69.4728E-03    -31.7850E-03    -31.8060E-03
            1149               1     76.7407E-03     78.1442E-03    -31.7469E-03    -31.6530E-03
            1150               1     86.5561E-03     87.8449E-03    -31.7011E-03    -31.7411E-03
            1151               1     96.3182E-03     98.4814E-03    -31.3868E-03    -31.3507E-03
            1152               1     107.831E-03     109.183E-03    -31.0114E-03    -31.0479E-03
            1153               1     117.742E-03     120.563E-03    -29.6007E-03    -29.8592E-03
            1154               1     128.906E-03     130.567E-03    -27.9676E-03    -27.9432E-03
            1155               1     138.451E-03     140.422E-03    -24.2940E-03    -24.9168E-03
            1156               1     99.5771E-03     96.9896E-03    -8.12312E-03    -7.44119E-03
            1157               1     94.9550E-03     91.4183E-03    -15.2011E-03    -14.8943E-03
            1158               1     88.1183E-03     85.2366E-03    -22.6889E-03    -22.1179E-03
            1159               1     79.4961E-03     76.9750E-03    -25.8721E-03    -25.5817E-03
            1160               1     73.2539E-03     71.0101E-03    -29.2664E-03    -28.9989E-03
            1161               1     64.0450E-03     62.4523E-03    -29.9061E-03    -29.6410E-03
            1162               1     58.6258E-03     57.5713E-03    -30.4612E-03    -30.3945E-03
            1163               1     54.0855E-03     53.4911E-03    -30.4856E-03    -30.3402E-03
            1164               1     52.8170E-03     52.9506E-03    -30.3888E-03    -30.4040E-03
            1165               1     54.8636E-03     55.3251E-03    -30.4264E-03    -30.3381E-03
            1166               1     59.3037E-03     60.3864E-03    -30.3335E-03    -30.4140E-03
            1167               1     66.5376E-03     67.8448E-03    -30.5671E-03    -30.4865E-03
            1168               1     75.1322E-03     76.7437E-03    -30.6126E-03    -30.7845E-03
            1169               1     84.9066E-03     86.9080E-03    -30.9962E-03    -30.8981E-03
            1170               1     96.0491E-03     97.8333E-03    -31.0711E-03    -31.3460E-03
            1171               1     106.702E-03     109.407E-03    -31.1598E-03    -31.1005E-03
            1172               1     119.589E-03     121.141E-03    -30.8396E-03    -31.0558E-03
            1173               1     130.383E-03     133.326E-03    -29.0182E-03    -29.4125E-03
            1174               1     142.207E-03     144.173E-03    -26.7209E-03    -26.4545E-03
            1175               1     110.734E-03     106.534E-03    -6.48557E-03    -5.91104E-03
            1176               1     101.522E-03     98.7318E-03    -16.7444E-03    -15.9640E-03
            1177               1     91.6269E-03     88.5210E-03    -21.8103E-03    -21.4644E-03
            1178               1     83.8773E-03     80.8418E-03    -27.7654E-03    -27.1861E-03
            1179               1     70.8815E-03     68.5789E-03    -28.5764E-03    -28.0628E-03
            1180               1     63.2593E-03     61.4488E-03    -29.0918E-03    -28.9009E-03
            1181               1     55.5974E-03     54.2486E-03    -29.1430E-03    -28.8563E-03
            1182               1     51.0324E-03     50.5404E-03    -28.6976E-03    -28.6788E-03
            1183               1     49.9227E-03     49.8833E-03    -28.7343E-03    -28.6054E-03
            1184               1     51.3280E-03     52.1857E-03    -28.3774E-03    -28.4576E-03
            1185               1     56.7201E-03     57.8512E-03    -28.6761E-03    -28.6078E-03
            1186               1     63.5095E-03     65.2467E-03    -28.6098E-03    -28.8093E-03
            1187               1     72.6875E-03     74.5557E-03    -29.2758E-03    -29.1932E-03
            1188               1     82.7007E-03     84.8489E-03    -29.4580E-03    -29.8342E-03
            1189               1     93.5565E-03     95.9787E-03    -30.4342E-03    -30.2597E-03
            1190               1     105.929E-03     108.044E-03    -30.6773E-03    -31.2042E-03
            1191               1     117.495E-03     120.434E-03    -31.3253E-03    -31.0638E-03
            1192               1     132.655E-03     133.940E-03    -31.2235E-03    -31.3858E-03
            1193               1     145.100E-03     147.588E-03    -28.3896E-03    -28.9731E-03
            1194               1     118.516E-03     117.080E-03    -7.12747E-03    -6.56684E-03
            1195               1     110.592E-03     106.587E-03    -15.9480E-03    -15.6693E-03
            1196               1     100.273E-03     96.6985E-03    -26.8995E-03    -25.9567E-03
            1197               1     80.4060E-03     77.7039E-03    -27.5621E-03    -26.7364E-03
            1198               1     70.1423E-03     67.7724E-03    -27.5419E-03    -27.2273E-03
            1199               1     59.3096E-03     57.2541E-03    -27.6185E-03    -27.1609E-03
            1200               1     51.5906E-03     50.3423E-03    -26.6266E-03    -26.5566E-03
            1201               1     47.1950E-03     46.4163E-03    -26.6753E-03    -26.4764E-03
            1202               1     45.0425E-03     45.3538E-03    -25.9432E-03    -25.9904E-03
            1203               1     47.8411E-03     48.6356E-03    -26.2230E-03    -26.1469E-03
            1204               1     52.3016E-03     53.9422E-03    -25.9228E-03    -26.0789E-03
            1205               1     60.3193E-03     62.1083E-03    -26.6014E-03    -26.5516E-03
            1206               1     68.9368E-03     71.2411E-03    -26.6902E-03    -27.0189E-03
            1207               1     79.4348E-03     81.7030E-03    -27.8957E-03    -27.7684E-03
            1208               1     90.4797E-03     93.0280E-03    -28.2463E-03    -28.8322E-03
            1209               1     102.284E-03     104.852E-03    -30.0222E-03    -29.6294E-03
            1210               1     116.004E-03     118.295E-03    -30.4567E-03    -31.2120E-03
            1211               1     128.907E-03     131.739E-03    -32.1921E-03    -31.3391E-03
            1212               1     148.341E-03     149.015E-03    -32.7387E-03    -32.5770E-03
            1213               1     139.525E-03     132.751E-03    -6.09341E-03    -5.60174E-03
            1214               1     126.450E-03     123.125E-03    -27.7170E-03    -26.2053E-03
            1215               1     93.5112E-03     91.0016E-03    -28.0075E-03    -26.7890E-03
            1216               1     79.0895E-03     76.6443E-03    -25.7262E-03    -25.3765E-03
            1217               1     65.0805E-03     62.6521E-03    -25.9269E-03    -25.3521E-03
            1218               1     54.1982E-03     52.2894E-03    -24.0203E-03    -23.9293E-03
            1219               1     46.8092E-03     45.2231E-03    -24.1649E-03    -23.9198E-03
            1220               1     40.8895E-03     40.3411E-03    -22.9822E-03    -22.9948E-03
            1221               1     40.4163E-03     40.6056E-03    -23.2590E-03    -23.1695E-03
            1222               1     41.9044E-03     43.1917E-03    -22.6754E-03    -22.7616E-03
            1223               1     48.1963E-03     49.8947E-03    -23.2664E-03    -23.2344E-03
            1224               1     55.3166E-03     57.6194E-03    -23.1772E-03    -23.3731E-03
            1225               1     65.0614E-03     67.3709E-03    -24.2537E-03    -24.2027E-03
            1226               1     74.9297E-03     77.5864E-03    -24.5456E-03    -24.9398E-03
            1227               1     86.3265E-03     88.7915E-03    -26.3219E-03    -26.1140E-03
            1228               1     98.1228E-03     100.825E-03    -26.8390E-03    -27.5363E-03
            1229               1     110.966E-03     113.448E-03    -29.6569E-03    -28.9388E-03
            1230               1     126.115E-03     128.559E-03    -30.2510E-03    -31.1687E-03
            1231               1     141.196E-03     143.724E-03    -34.3802E-03    -32.3963E-03
            1232               1     166.098E-03     169.120E-03    -25.9733E-03    -24.0273E-03
            1233               1     112.404E-03     111.787E-03    -31.2975E-03    -29.9572E-03
            1234               1     88.9126E-03     87.2887E-03    -22.7666E-03    -22.6806E-03
            1235               1     72.9387E-03     70.7426E-03    -23.7761E-03    -23.3255E-03
            1236               1     58.5915E-03     56.2692E-03    -20.5788E-03    -20.5640E-03
            1237               1     48.8982E-03     46.6881E-03    -21.0169E-03    -20.8443E-03
            1238               1     39.4253E-03     37.7927E-03    -19.3938E-03    -19.4005E-03
            1239               1     35.2345E-03     34.4678E-03    -19.7420E-03    -19.6781E-03
            1240               1     32.8599E-03     33.3914E-03    -18.8952E-03    -18.9217E-03
            1241               1     36.5994E-03     38.0553E-03    -19.4047E-03    -19.3832E-03
            1242               1     41.9665E-03     44.1915E-03    -19.1205E-03    -19.1782E-03
            1243               1     50.7328E-03     53.2201E-03    -19.9788E-03    -19.9642E-03
            1244               1     59.7548E-03     62.4493E-03    -20.1611E-03    -20.2829E-03
            1245               1     70.4845E-03     73.1582E-03    -21.5460E-03    -21.4943E-03
            1246               1     81.2039E-03     83.8123E-03    -22.0881E-03    -22.3368E-03
            1247               1     93.2229E-03     95.7539E-03    -24.2895E-03    -24.0791E-03
            1248               1     105.618E-03     107.922E-03    -25.0092E-03    -25.4903E-03
            1249               1     119.668E-03     122.142E-03    -28.8341E-03    -28.0711E-03
            1250               1     135.691E-03     138.159E-03    -29.2914E-03    -30.0969E-03
            1251               1     97.2961E-03     112.707E-03    -3.34620E-03    -9.02434E-03
            1252               1     84.4130E-03     90.6918E-03    -11.1771E-03    -13.3395E-03
            1253               1     84.8076E-03     86.9679E-03    -22.2354E-03    -22.7107E-03
            1254               1     79.0357E-03     80.2561E-03    -26.6723E-03    -27.2803E-03
            1255               1     77.7216E-03     77.6926E-03    -33.1136E-03    -33.2041E-03
            1256               1     73.2771E-03     73.2802E-03    -35.8783E-03    -36.0741E-03
            1257               1     73.4866E-03     73.2243E-03    -39.9445E-03    -39.9479E-03
            1258               1     72.1668E-03     72.1342E-03    -41.2772E-03    -41.3234E-03
            1259               1     75.6292E-03     75.6477E-03    -43.5345E-03    -43.5024E-03
            1260               1     78.4903E-03     78.6963E-03    -43.5823E-03    -43.5681E-03
            1261               1     85.2514E-03     85.4623E-03    -44.2886E-03    -44.2192E-03
            1262               1     91.5556E-03     91.8505E-03    -43.0692E-03    -43.0336E-03
            1263               1     100.537E-03     100.596E-03    -42.3287E-03    -42.1855E-03
            1264               1     108.750E-03     108.856E-03    -39.6818E-03    -39.6567E-03
            1265               1     118.772E-03     118.247E-03    -37.4441E-03    -37.1567E-03
            1266               1     127.482E-03     127.099E-03    -33.0028E-03    -33.0505E-03
            1267               1     137.656E-03     136.092E-03    -29.1006E-03    -28.5682E-03
            1268               1     145.614E-03     144.553E-03    -22.1554E-03    -22.4536E-03
            1269               1     155.493E-03     152.822E-03    -16.4056E-03    -15.5908E-03
            1270               1     114.748E-03     103.522E-03    -17.2762E-03    -18.9117E-03
            1271               1     106.151E-03     107.164E-03    -14.5380E-03    -17.8729E-03
            1272               1     92.1686E-03     93.8220E-03    -19.7227E-03    -21.7653E-03
            1273               1     87.1243E-03     87.3633E-03    -26.0807E-03    -26.7678E-03
            1274               1     77.8835E-03     78.4027E-03    -29.0719E-03    -29.8613E-03
            1275               1     73.7421E-03     73.3949E-03    -33.6493E-03    -33.7998E-03
            1276               1     67.7810E-03     67.7860E-03    -35.3063E-03    -35.5621E-03
            1277               1     67.4441E-03     67.2164E-03    -38.1200E-03    -38.1009E-03
            1278               1     67.1917E-03     67.3023E-03    -38.6380E-03    -38.6598E-03
            1279               1     72.2444E-03     72.3742E-03    -39.9556E-03    -39.8437E-03
            1280               1     77.9087E-03     78.3027E-03    -39.4044E-03    -39.3257E-03
            1281               1     87.2268E-03     87.4697E-03    -39.4434E-03    -39.2050E-03
            1282               1     96.4981E-03     97.0727E-03    -37.7249E-03    -37.6222E-03
            1283               1     108.164E-03     108.178E-03    -36.5707E-03    -36.0965E-03
            1284               1     118.857E-03     119.527E-03    -33.3938E-03    -33.3622E-03
            1285               1     131.519E-03     131.125E-03    -30.9901E-03    -30.1423E-03
            1286               1     142.105E-03     142.971E-03    -25.9051E-03    -26.1334E-03
            1287               1     155.009E-03     154.481E-03    -22.0274E-03    -20.8705E-03
            1288               1     164.007E-03     165.630E-03    -14.6029E-03    -15.4951E-03
            1289               1     111.318E-03     110.114E-03    -14.7708E-03    -13.9493E-03
            1290               1     113.936E-03     108.100E-03    -20.7434E-03    -21.1537E-03
            1291               1     104.156E-03     102.622E-03    -21.3103E-03    -22.9012E-03
            1292               1     91.6720E-03     91.3719E-03    -24.8080E-03    -26.0034E-03
            1293               1     83.6650E-03     82.8185E-03    -28.9279E-03    -29.4105E-03
            1294               1     73.0480E-03     72.9154E-03    -30.8076E-03    -31.3548E-03
            1295               1     67.7925E-03     67.2043E-03    -33.8756E-03    -33.9658E-03
            1296               1     62.3402E-03     62.2797E-03    -34.6699E-03    -34.8153E-03
            1297               1     63.3087E-03     63.2500E-03    -36.3705E-03    -36.2993E-03
            1298               1     66.1511E-03     66.5108E-03    -36.2970E-03    -36.2472E-03
            1299               1     74.0847E-03     74.4781E-03    -36.8634E-03    -36.6645E-03
            1300               1     83.2656E-03     84.0976E-03    -35.9334E-03    -35.8060E-03
            1301               1     95.4591E-03     95.9422E-03    -35.5525E-03    -35.1543E-03
            1302               1     107.437E-03     108.731E-03    -33.5673E-03    -33.4659E-03
            1303               1     121.656E-03     122.031E-03    -32.2523E-03    -31.5405E-03
            1304               1     134.275E-03     136.171E-03    -28.8677E-03    -28.9567E-03
            1305               1     149.197E-03     149.666E-03    -26.3909E-03    -25.4353E-03
            1306               1     161.143E-03     163.842E-03    -21.4960E-03    -21.9837E-03
            1307               1     175.748E-03     177.197E-03    -16.9869E-03    -16.9563E-03
            1308               1     122.505E-03     116.623E-03    -12.8247E-03    -13.5422E-03
            1309               1     114.603E-03     111.980E-03    -18.5081E-03    -18.5323E-03
            1310               1     109.016E-03     105.206E-03    -23.0788E-03    -23.3795E-03
            1311               1     98.4066E-03     96.1935E-03    -25.4954E-03    -26.1794E-03
            1312               1     85.6375E-03     84.5193E-03    -27.8285E-03    -28.4368E-03
            1313               1     76.4634E-03     75.1327E-03    -30.7550E-03    -30.9789E-03
            1314               1     65.8651E-03     65.3543E-03    -31.7327E-03    -31.9909E-03
            1315               1     61.3594E-03     60.8353E-03    -33.5645E-03    -33.5685E-03
            1316               1     58.9042E-03     58.9953E-03    -33.7564E-03    -33.7690E-03
            1317               1     63.0750E-03     63.4400E-03    -34.5758E-03    -34.4616E-03
            1318               1     70.3315E-03     71.1937E-03    -34.1919E-03    -34.0863E-03
            1319               1     81.5886E-03     82.4290E-03    -34.2800E-03    -34.0352E-03
            1320               1     93.9260E-03     95.4976E-03    -33.2543E-03    -33.1250E-03
            1321               1     108.690E-03     109.640E-03    -32.7121E-03    -32.2640E-03
            1322               1     122.645E-03     125.028E-03    -30.7581E-03    -30.7431E-03
            1323               1     138.906E-03     139.956E-03    -29.4165E-03    -28.7610E-03
            1324               1     152.866E-03     156.096E-03    -26.2537E-03    -26.5376E-03
            1325               1     168.866E-03     170.563E-03    -23.4868E-03    -23.1660E-03
            1326               1     182.531E-03     185.139E-03    -19.7702E-03    -20.1891E-03
            1327               1     126.233E-03     122.666E-03    -10.8665E-03    -10.0912E-03
            1328               1     121.700E-03     116.721E-03    -17.2844E-03    -17.3320E-03
            1329               1     111.490E-03     108.323E-03    -22.1263E-03    -22.1547E-03
            1330               1     101.124E-03     98.0537E-03    -25.5099E-03    -25.6539E-03
            1331               1     89.7880E-03     87.3231E-03    -28.3775E-03    -28.5744E-03
            1332               1     76.1605E-03     74.7159E-03    -29.6678E-03    -29.8650E-03
            1333               1     67.1196E-03     65.7625E-03    -31.4711E-03    -31.5153E-03
            1334               1     58.5754E-03     58.0425E-03    -31.7830E-03    -31.8139E-03
            1335               1     56.9061E-03     56.8708E-03    -32.5865E-03    -32.5463E-03
            1336               1     59.7329E-03     60.3376E-03    -32.4928E-03    -32.4183E-03
            1337               1     68.0900E-03     69.0963E-03    -32.7403E-03    -32.6385E-03
            1338               1     79.5024E-03     81.0929E-03    -32.3655E-03    -32.2449E-03
            1339               1     93.6308E-03     95.0413E-03    -32.2637E-03    -32.0785E-03
            1340               1     108.195E-03     110.691E-03    -31.4576E-03    -31.3681E-03
            1341               1     124.976E-03     126.497E-03    -30.9482E-03    -30.6510E-03
            1342               1     140.234E-03     143.695E-03    -29.3076E-03    -29.4161E-03
            1343               1     157.723E-03     159.528E-03    -27.9088E-03    -27.6327E-03
            1344               1     172.844E-03     176.364E-03    -25.1356E-03    -25.5178E-03
            1345               1     187.624E-03     190.661E-03    -21.9596E-03    -22.1981E-03
            1346               1     136.213E-03     131.076E-03    -8.29843E-03    -8.11138E-03
            1347               1     124.936E-03     121.306E-03    -15.9411E-03    -15.4071E-03
            1348               1     116.154E-03     111.863E-03    -21.0333E-03    -20.9046E-03
            1349               1     104.273E-03     100.847E-03    -25.8690E-03    -25.6682E-03
            1350               1     89.9376E-03     87.2281E-03    -27.8319E-03    -27.7364E-03
            1351               1     78.2701E-03     75.8478E-03    -29.8950E-03    -29.8414E-03
            1352               1     65.0030E-03     63.5257E-03    -30.2921E-03    -30.2105E-03
            1353               1     57.5309E-03     56.6387E-03    -30.8800E-03    -30.8559E-03
            1354               1     53.9123E-03     53.8534E-03    -30.8733E-03    -30.7860E-03
            1355               1     57.0383E-03     57.8534E-03    -30.9872E-03    -30.9740E-03
            1356               1     65.6598E-03     67.0458E-03    -30.9480E-03    -30.8483E-03
            1357               1     77.7797E-03     79.4905E-03    -30.9594E-03    -30.9613E-03
            1358               1     92.0950E-03     94.4883E-03    -30.9185E-03    -30.8116E-03
            1359               1     108.354E-03     110.340E-03    -30.8723E-03    -30.8915E-03
            1360               1     124.297E-03     127.664E-03    -30.5800E-03    -30.5266E-03
            1361               1     142.601E-03     144.596E-03    -30.2307E-03    -30.2454E-03
            1362               1     158.798E-03     162.836E-03    -28.9269E-03    -29.1457E-03
            1363               1     176.623E-03     179.049E-03    -27.4118E-03    -27.3651E-03
            1364               1     192.631E-03     195.205E-03    -24.0105E-03    -24.5654E-03
            1365               1     141.462E-03     137.986E-03    -6.67058E-03    -6.11179E-03
            1366               1     133.372E-03     128.297E-03    -13.8963E-03    -13.5669E-03
            1367               1     120.320E-03     116.411E-03    -21.8942E-03    -21.2545E-03
            1368               1     105.418E-03     101.739E-03    -25.0378E-03    -24.6871E-03
            1369               1     92.4462E-03     89.0322E-03    -28.5456E-03    -28.1903E-03
            1370               1     75.7662E-03     73.2732E-03    -29.0565E-03    -28.6983E-03
            1371               1     64.2398E-03     62.2918E-03    -29.3748E-03    -29.2728E-03
            1372               1     54.3285E-03     53.2270E-03    -29.3363E-03    -29.1422E-03
            1373               1     50.7042E-03     50.7907E-03    -29.0606E-03    -29.0668E-03
            1374               1     54.1611E-03     55.0325E-03    -29.1098E-03    -29.0019E-03
            1375               1     62.5635E-03     64.3100E-03    -28.9398E-03    -29.0314E-03
            1376               1     75.5186E-03     77.7067E-03    -29.2714E-03    -29.1821E-03
            1377               1     90.2963E-03     92.6465E-03    -29.3321E-03    -29.5433E-03
            1378               1     106.318E-03     109.397E-03    -29.9302E-03    -29.8141E-03
            1379               1     124.098E-03     126.548E-03    -30.1154E-03    -30.4651E-03
            1380               1     140.917E-03     144.846E-03    -30.5661E-03    -30.4502E-03
            1381               1     160.631E-03     162.796E-03    -30.4993E-03    -30.7762E-03
            1382               1     177.727E-03     181.698E-03    -29.0465E-03    -29.3830E-03
            1383               1     195.760E-03     198.632E-03    -27.1301E-03    -26.7493E-03
            1384               1     154.167E-03     148.117E-03    -4.45468E-03    -3.67190E-03
            1385               1     139.495E-03     135.940E-03    -15.5730E-03    -14.7059E-03
            1386               1     124.320E-03     119.882E-03    -20.7353E-03    -20.2993E-03
            1387               1     109.879E-03     105.677E-03    -27.3767E-03    -26.5666E-03
            1388               1     88.9350E-03     85.7320E-03    -27.8938E-03    -27.1677E-03
            1389               1     74.8015E-03     71.9741E-03    -27.9519E-03    -27.6752E-03
            1390               1     60.1057E-03     57.9323E-03    -27.8180E-03    -27.4174E-03
            1391               1     50.3584E-03     49.2928E-03    -26.9331E-03    -26.8948E-03
            1392               1     46.8997E-03     46.8015E-03    -26.9255E-03    -26.7550E-03
            1393               1     49.4945E-03     50.8518E-03    -26.3324E-03    -26.4290E-03
            1394               1     59.5380E-03     61.4289E-03    -26.7390E-03    -26.6621E-03
            1395               1     71.9752E-03     74.4895E-03    -26.6273E-03    -26.8843E-03
            1396               1     87.4040E-03     90.2182E-03    -27.5873E-03    -27.4990E-03
            1397               1     103.829E-03     106.672E-03    -27.8939E-03    -28.3918E-03
            1398               1     120.808E-03     124.293E-03    -29.4063E-03    -29.1887E-03
            1399               1     139.802E-03     142.510E-03    -29.9555E-03    -30.6662E-03
            1400               1     157.337E-03     161.443E-03    -31.3615E-03    -30.9810E-03
            1401               1     179.343E-03     181.158E-03    -31.8266E-03    -32.0561E-03
            1402               1     198.060E-03     201.268E-03    -29.4342E-03    -29.9819E-03
            1403               1     160.986E-03     159.412E-03    -4.90877E-03    -4.49139E-03
            1404               1     150.223E-03     144.306E-03    -14.2774E-03    -13.9036E-03
            1405               1     133.160E-03     128.476E-03    -27.2237E-03    -25.7972E-03
            1406               1     104.293E-03     100.882E-03    -27.3428E-03    -26.1280E-03
            1407               1     87.7161E-03     84.4632E-03    -26.5327E-03    -26.0644E-03
            1408               1     69.2382E-03     66.3491E-03    -26.2585E-03    -25.6025E-03
            1409               1     55.1348E-03     53.0068E-03    -24.4888E-03    -24.3794E-03
            1410               1     45.1830E-03     43.7780E-03    -24.3819E-03    -24.1068E-03
            1411               1     40.3128E-03     40.6621E-03    -23.1765E-03    -23.2312E-03
            1412               1     45.2245E-03     46.5779E-03    -23.5025E-03    -23.4087E-03
            1413               1     54.2140E-03     56.6627E-03    -23.0226E-03    -23.2252E-03
            1414               1     68.3383E-03     71.0049E-03    -23.9778E-03    -23.9301E-03
            1415               1     83.1612E-03     86.1923E-03    -24.1405E-03    -24.5784E-03
            1416               1     99.7898E-03     102.937E-03    -25.9159E-03    -25.7742E-03
            1417               1     117.142E-03     120.269E-03    -26.5756E-03    -27.3685E-03
            1418               1     134.750E-03     138.266E-03    -29.2947E-03    -28.8118E-03
            1419               1     154.969E-03     157.727E-03    -30.2971E-03    -31.3335E-03
            1420               1     173.473E-03     177.380E-03    -33.2961E-03    -32.2100E-03
            1421               1     200.063E-03     201.098E-03    -34.8545E-03    -34.6687E-03
            1422               1     186.748E-03     176.261E-03    -3.29462E-03    -2.40234E-03
            1423               1     166.950E-03     163.008E-03    -29.5879E-03    -27.1062E-03
            1424               1     122.387E-03     119.654E-03    -28.9338E-03    -27.0687E-03
            1425               1     102.067E-03     99.1457E-03    -24.9995E-03    -24.4485E-03
            1426               1     80.3622E-03     77.3632E-03    -24.6621E-03    -23.8193E-03
            1427               1     63.0916E-03     60.3664E-03    -21.5163E-03    -21.3755E-03
            1428               1     48.7253E-03     46.2257E-03    -21.3606E-03    -21.0137E-03
            1429               1     36.8824E-03     35.6485E-03    -19.4092E-03    -19.4195E-03
            1430               1     34.1474E-03     34.3952E-03    -19.6215E-03    -19.5028E-03
            1431               1     37.6463E-03     39.7112E-03    -18.6635E-03    -18.7747E-03
            1432               1     49.5469E-03     52.1562E-03    -19.4463E-03    -19.4143E-03
            1433               1     62.7511E-03     65.8654E-03    -19.3183E-03    -19.5786E-03
            1434               1     78.6829E-03     81.7889E-03    -20.8930E-03    -20.8442E-03
            1435               1     94.6563E-03     97.8834E-03    -21.4498E-03    -21.9825E-03
            1436               1     111.786E-03     114.938E-03    -24.1233E-03    -23.8814E-03
            1437               1     129.580E-03     132.662E-03    -25.2002E-03    -26.1532E-03
            1438               1     147.804E-03     150.981E-03    -29.4545E-03    -28.5812E-03
            1439               1     169.233E-03     171.949E-03    -30.9283E-03    -32.1988E-03
            1440               1     189.420E-03     192.820E-03    -37.1601E-03    -34.7195E-03
            1441               1     214.682E-03     221.376E-03    -29.7937E-03    -26.2747E-03
            1442               1     145.656E-03     146.287E-03    -34.5668E-03    -32.5210E-03
            1443               1     116.084E-03     114.790E-03    -22.3025E-03    -22.1028E-03
            1444               1     93.0164E-03     90.7508E-03    -22.6494E-03    -21.9898E-03
            1445               1     72.7766E-03     69.9209E-03    -17.6153E-03    -17.5795E-03
            1446               1     56.2113E-03     53.2096E-03    -17.5986E-03    -17.3533E-03
            1447               1     39.9461E-03     37.1808E-03    -14.8867E-03    -14.8919E-03
            1448               1     29.2981E-03     27.6278E-03    -15.0308E-03    -14.9433E-03
            1449               1     23.7017E-03     24.5350E-03    -13.5823E-03    -13.6162E-03
            1450               1     31.2442E-03     33.7412E-03    -14.1580E-03    -14.1321E-03
            1451               1     42.7042E-03     45.9691E-03    -13.6713E-03    -13.7474E-03
            1452               1     57.8662E-03     61.2360E-03    -14.8986E-03    -14.8851E-03
            1453               1     73.0214E-03     76.3645E-03    -15.2440E-03    -15.4075E-03
            1454               1     89.4337E-03     92.6921E-03    -17.3644E-03    -17.3065E-03
            1455               1     105.834E-03     108.759E-03    -18.4332E-03    -18.7698E-03
            1456               1     123.082E-03     125.973E-03    -21.8543E-03    -21.6014E-03
            1457               1     141.022E-03     143.316E-03    -23.4748E-03    -24.1255E-03
            1458               1     160.015E-03     162.712E-03    -29.2568E-03    -28.3276E-03
            1459               1     181.881E-03     184.137E-03    -30.9659E-03    -32.0457E-03
            1460               1     144.683E-03     156.954E-03     4.40927E-03    -948.770E-06
            1461               1     118.100E-03     122.364E-03    -4.49023E-03    -6.64689E-03
            1462               1     112.868E-03     113.446E-03    -18.1425E-03    -18.5417E-03
            1463               1     101.855E-03     101.745E-03    -25.3892E-03    -25.8968E-03
            1464               1     93.8144E-03     92.7292E-03    -31.9868E-03    -32.0444E-03
            1465               1     86.0176E-03     85.1463E-03    -37.1766E-03    -37.2877E-03
            1466               1     79.5890E-03     78.7382E-03    -40.4754E-03    -40.4335E-03
            1467               1     77.2805E-03     76.9622E-03    -43.4391E-03    -43.4640E-03
            1468               1     77.7124E-03     77.6728E-03    -44.8202E-03    -44.7485E-03
            1469               1     83.1036E-03     83.5951E-03    -45.9839E-03    -46.0033E-03
            1470               1     91.3186E-03     91.8761E-03    -46.0067E-03    -45.9177E-03
            1471               1     102.596E-03     103.556E-03    -45.6984E-03    -45.7200E-03
            1472               1     115.487E-03     116.156E-03    -44.4249E-03    -44.2927E-03
            1473               1     129.530E-03     130.531E-03    -42.5889E-03    -42.5837E-03
            1474               1     144.382E-03     144.674E-03    -39.7174E-03    -39.4978E-03
            1475               1     158.917E-03     159.500E-03    -35.8005E-03    -35.7337E-03
            1476               1     174.279E-03     173.520E-03    -30.8446E-03    -30.4298E-03
            1477               1     187.374E-03     187.229E-03    -23.5167E-03    -23.6001E-03
            1478               1     202.967E-03     200.653E-03    -16.3247E-03    -15.5042E-03
            1479               1     155.849E-03     142.921E-03    -14.7097E-03    -16.1784E-03
            1480               1     147.525E-03     145.962E-03    -8.53501E-03    -11.6675E-03
            1481               1     123.474E-03     123.386E-03    -16.7781E-03    -18.5540E-03
            1482               1     112.896E-03     111.676E-03    -23.0339E-03    -23.6381E-03
            1483               1     97.7298E-03     96.7793E-03    -28.8313E-03    -29.3437E-03
            1484               1     85.2836E-03     83.9473E-03    -32.4211E-03    -32.4437E-03
            1485               1     75.3454E-03     74.4666E-03    -35.7916E-03    -35.9213E-03
            1486               1     68.4670E-03     67.6798E-03    -37.5457E-03    -37.3883E-03
            1487               1     67.8041E-03     67.9675E-03    -39.0535E-03    -39.1153E-03
            1488               1     72.4440E-03     72.7080E-03    -39.6448E-03    -39.4329E-03
            1489               1     82.0961E-03     83.2332E-03    -39.8481E-03    -39.9236E-03
            1490               1     95.2204E-03     96.0872E-03    -39.4835E-03    -39.1933E-03
            1491               1     110.312E-03     111.800E-03    -38.5311E-03    -38.6023E-03
            1492               1     127.029E-03     128.032E-03    -37.0883E-03    -36.6440E-03
            1493               1     144.164E-03     145.613E-03    -34.7936E-03    -34.7559E-03
            1494               1     162.278E-03     163.191E-03    -31.7794E-03    -31.1354E-03
            1495               1     179.228E-03     180.816E-03    -27.4808E-03    -27.2809E-03
            1496               1     198.347E-03     198.939E-03    -22.2013E-03    -21.4059E-03
            1497               1     212.276E-03     215.396E-03    -14.6998E-03    -15.0758E-03
            1498               1     153.415E-03     150.623E-03    -11.1990E-03    -10.2896E-03
            1499               1     153.116E-03     146.192E-03    -19.2704E-03    -19.3478E-03
            1500               1     140.351E-03     136.848E-03    -17.4525E-03    -18.9617E-03
            1501               1     120.216E-03     118.259E-03    -24.5843E-03    -25.3147E-03
            1502               1     103.582E-03     101.538E-03    -26.8352E-03    -27.1450E-03
            1503               1     87.3588E-03     85.8089E-03    -30.6761E-03    -30.9348E-03
            1504               1     72.4998E-03     70.9565E-03    -32.0148E-03    -31.8808E-03
            1505               1     63.0871E-03     62.4763E-03    -33.5429E-03    -33.6517E-03
            1506               1     59.5983E-03     59.2263E-03    -34.2079E-03    -33.9624E-03
            1507               1     63.9654E-03     64.9454E-03    -34.6047E-03    -34.7066E-03
            1508               1     74.8773E-03     75.7886E-03    -34.7451E-03    -34.4277E-03
            1509               1     89.4407E-03     91.2809E-03    -34.3876E-03    -34.5208E-03
            1510               1     106.860E-03     108.339E-03    -33.9795E-03    -33.5291E-03
            1511               1     125.320E-03     127.430E-03    -32.8990E-03    -33.0128E-03
            1512               1     144.978E-03     146.841E-03    -31.6391E-03    -31.0225E-03
            1513               1     164.860E-03     167.200E-03    -29.6926E-03    -29.6227E-03
            1514               1     185.676E-03     187.981E-03    -26.6090E-03    -26.1368E-03
            1515               1     204.628E-03     208.175E-03    -23.3973E-03    -23.0113E-03
            1516               1     226.923E-03     229.168E-03    -16.9321E-03    -17.9048E-03
            1517               1     164.018E-03     157.611E-03    -9.70966E-03    -10.3762E-03
            1518               1     157.102E-03     152.406E-03    -15.3693E-03    -15.3749E-03
            1519               1     146.124E-03     141.054E-03    -24.4868E-03    -24.1664E-03
            1520               1     126.968E-03     123.456E-03    -23.7044E-03    -24.2307E-03
            1521               1     108.189E-03     105.416E-03    -28.6975E-03    -28.8167E-03
            1522               1     87.2979E-03     84.9526E-03    -28.5757E-03    -28.4767E-03
            1523               1     71.1735E-03     69.5676E-03    -29.8467E-03    -29.9713E-03
            1524               1     57.8778E-03     56.5089E-03    -29.9569E-03    -29.7171E-03
            1525               1     52.6950E-03     52.9212E-03    -30.1374E-03    -30.2558E-03
            1526               1     56.9984E-03     57.6031E-03    -30.2969E-03    -30.0040E-03
            1527               1     68.4294E-03     70.3820E-03    -30.1160E-03    -30.2766E-03
            1528               1     85.0411E-03     86.7974E-03    -30.2430E-03    -29.8609E-03
            1529               1     103.513E-03     106.071E-03    -29.8437E-03    -30.0729E-03
            1530               1     123.778E-03     126.118E-03    -29.8191E-03    -29.3071E-03
            1531               1     144.812E-03     147.686E-03    -29.2581E-03    -29.4958E-03
            1532               1     166.325E-03     169.431E-03    -28.5575E-03    -28.0743E-03
            1533               1     188.877E-03     192.099E-03    -28.0131E-03    -27.9191E-03
            1534               1     211.203E-03     215.080E-03    -24.6507E-03    -25.3562E-03
            1535               1     232.864E-03     236.563E-03    -24.2736E-03    -22.9797E-03
            1536               1     174.696E-03     167.796E-03    -6.72225E-03    -5.43231E-03
            1537               1     165.189E-03     159.916E-03    -19.0612E-03    -18.5096E-03
            1538               1     148.465E-03     143.769E-03    -21.7032E-03    -21.7087E-03
            1539               1     132.584E-03     127.837E-03    -29.5435E-03    -28.9032E-03
            1540               1     106.146E-03     102.930E-03    -27.3527E-03    -27.0778E-03
            1541               1     87.1992E-03     84.5183E-03    -28.0766E-03    -28.0576E-03
            1542               1     66.9904E-03     64.6215E-03    -27.0366E-03    -26.7699E-03
            1543               1     52.7619E-03     51.6498E-03    -26.5729E-03    -26.6802E-03
            1544               1     46.0013E-03     45.6255E-03    -26.2718E-03    -26.0144E-03
            1545               1     49.8316E-03     51.4593E-03    -25.8407E-03    -25.9977E-03
            1546               1     63.1435E-03     64.9875E-03    -26.0039E-03    -25.7031E-03
            1547               1     80.2801E-03     83.0967E-03    -25.7993E-03    -26.0494E-03
            1548               1     100.296E-03     102.923E-03    -26.3449E-03    -25.9626E-03
            1549               1     121.203E-03     124.441E-03    -26.4285E-03    -26.8297E-03
            1550               1     142.893E-03     146.176E-03    -27.2526E-03    -26.8223E-03
            1551               1     165.924E-03     169.406E-03    -27.8655E-03    -28.3285E-03
            1552               1     188.024E-03     192.433E-03    -28.2334E-03    -28.1317E-03
            1553               1     214.148E-03     216.937E-03    -30.0515E-03    -29.6993E-03
            1554               1     235.761E-03     240.716E-03    -26.4176E-03    -28.3057E-03
            1555               1     183.807E-03     181.110E-03    -6.57176E-03    -6.51496E-03
            1556               1     174.200E-03     167.317E-03    -16.1619E-03    -15.7470E-03
            1557               1     158.489E-03     152.633E-03    -30.8979E-03    -29.4599E-03
            1558               1     124.493E-03     120.823E-03    -28.2814E-03    -27.3113E-03
            1559               1     105.333E-03     101.695E-03    -27.6860E-03    -27.3328E-03
            1560               1     80.9888E-03     77.8603E-03    -25.3855E-03    -24.9655E-03
            1561               1     62.1423E-03     59.7516E-03    -23.7900E-03    -23.8276E-03
            1562               1     45.8661E-03     43.9591E-03    -22.7035E-03    -22.4636E-03
            1563               1     37.8946E-03     38.2532E-03    -21.6408E-03    -21.7725E-03
            1564               1     43.2245E-03     44.7691E-03    -21.4398E-03    -21.2140E-03
            1565               1     57.0435E-03     59.9629E-03    -21.0332E-03    -21.2380E-03
            1566               1     75.8993E-03     78.8071E-03    -21.5861E-03    -21.3167E-03
            1567               1     96.0535E-03     99.5227E-03    -21.8185E-03    -22.1859E-03
            1568               1     117.448E-03     120.827E-03    -23.1710E-03    -22.8602E-03
            1569               1     139.596E-03     143.306E-03    -24.1530E-03    -24.7955E-03
            1570               1     161.548E-03     165.576E-03    -26.3790E-03    -26.0696E-03
            1571               1     186.232E-03     189.751E-03    -28.5109E-03    -29.2870E-03
            1572               1     207.713E-03     213.033E-03    -31.0757E-03    -30.8069E-03
            1573               1     238.722E-03     240.000E-03    -34.9226E-03    -34.3276E-03
            1574               1     211.669E-03     199.095E-03    -4.25486E-03    -3.03562E-03
            1575               1     193.395E-03     188.291E-03    -34.0080E-03    -31.3404E-03
            1576               1     143.269E-03     139.991E-03    -31.5357E-03    -29.5556E-03
            1577               1     122.046E-03     118.391E-03    -27.2043E-03    -26.6608E-03
            1578               1     95.3942E-03     91.9774E-03    -24.5842E-03    -23.9004E-03
            1579               1     74.7752E-03     71.5173E-03    -21.2240E-03    -21.1608E-03
            1580               1     54.1510E-03     51.0372E-03    -19.3900E-03    -19.1491E-03
            1581               1     37.0915E-03     35.2157E-03    -17.4006E-03    -17.4857E-03
            1582               1     28.9939E-03     29.0939E-03    -16.6060E-03    -16.4535E-03
            1583               1     35.0893E-03     37.8205E-03    -15.7130E-03    -15.8453E-03
            1584               1     51.5515E-03     54.7979E-03    -15.8884E-03    -15.7217E-03
            1585               1     70.6975E-03     74.4097E-03    -15.9443E-03    -16.1674E-03
            1586               1     91.4386E-03     95.1405E-03    -17.1415E-03    -16.9490E-03
            1587               1     112.634E-03     116.456E-03    -18.1417E-03    -18.5848E-03
            1588               1     134.064E-03     137.932E-03    -20.6034E-03    -20.3987E-03
            1589               1     156.503E-03     160.209E-03    -22.6775E-03    -23.5086E-03
            1590               1     177.981E-03     182.199E-03    -26.9604E-03    -26.5464E-03
            1591               1     203.568E-03     206.706E-03    -30.2136E-03    -31.4090E-03
            1592               1     225.014E-03     229.963E-03    -37.0163E-03    -35.1778E-03
            1593               1     243.773E-03     250.691E-03    -34.2755E-03    -30.3144E-03
            1594               1     167.398E-03     167.518E-03    -39.0545E-03    -36.7098E-03
            1595               1     136.148E-03     134.054E-03    -25.1609E-03    -24.9647E-03
            1596               1     109.644E-03     106.667E-03    -23.6229E-03    -22.9665E-03
            1597               1     87.1070E-03     83.4302E-03    -17.8960E-03    -17.8749E-03
            1598               1     65.7731E-03     62.0152E-03    -15.8071E-03    -15.6224E-03
            1599               1     45.3882E-03     41.6989E-03    -12.7708E-03    -12.8018E-03
            1600               1     27.2745E-03     24.4001E-03    -11.3612E-03    -11.2932E-03
            1601               1     17.1709E-03     18.2255E-03    -9.83942E-03    -9.88637E-03
            1602               1     27.7578E-03     31.3700E-03    -9.42655E-03    -9.37130E-03
            1603               1     45.9393E-03     50.0471E-03    -9.09802E-03    -9.16186E-03
            1604               1     65.9913E-03     70.2804E-03    -9.76571E-03    -9.70246E-03
            1605               1     86.5117E-03     90.6155E-03    -10.5717E-03    -10.6960E-03
            1606               1     107.098E-03     111.395E-03    -12.4998E-03    -12.4302E-03
            1607               1     128.136E-03     131.842E-03    -14.4972E-03    -14.7736E-03
            1608               1     148.798E-03     152.790E-03    -18.1549E-03    -18.0267E-03
            1609               1     170.677E-03     173.497E-03    -21.3081E-03    -21.9193E-03
            1610               1     191.924E-03     195.449E-03    -27.9617E-03    -27.2927E-03
            1611               1     216.913E-03     219.042E-03    -31.5635E-03    -32.7170E-03
            1612               1     564.839E-06     658.294E-06     323.263E-06     326.031E-06
            1613               1     602.880E-06     804.306E-06     149.594E-06     142.796E-06
            1614               1     730.520E-06     720.188E-06     400.595E-06     393.931E-06
            1615               1     264.415E-06     300.655E-06     65.7290E-06     114.797E-06
            1616               1     638.335E-06     565.419E-06     303.921E-06     310.996E-06
            1617               1     227.946E-06     356.386E-06     120.660E-06     120.954E-06
            1618               1     42.2757E-03     39.7962E-03    -23.5425E-03    -22.5645E-03
            1619               1     30.3657E-03     31.7323E-03    -17.2353E-03    -17.2302E-03
            1620               1     43.1627E-03     43.1202E-03    -24.0584E-03    -24.0350E-03
            1621               1     27.1620E-03     28.7966E-03    -15.6379E-03    -16.3687E-03
            1622               1     41.8199E-03     43.0535E-03    -22.4129E-03    -22.9791E-03
            1623               1     29.1027E-03     28.8177E-03    -14.6768E-03    -15.0005E-03
            1624               1     44.5054E-03     45.1895E-03    -22.1385E-03    -22.7260E-03
            1625               1     33.5734E-03     34.7939E-03    -14.9110E-03    -15.0414E-03
            1626               1     48.2573E-03     49.2560E-03    -22.9829E-03    -23.1963E-03
            1627               1     41.5181E-03     40.4062E-03    -15.3112E-03    -15.4155E-03
            1628               1     53.7042E-03     54.5229E-03    -23.9984E-03    -24.8455E-03
            1629               1     48.0648E-03     50.7414E-03    -16.6644E-03    -16.6251E-03
            1630               1     60.9315E-03     60.9272E-03    -27.7984E-03    -27.4861E-03
            1631               1     61.1980E-03     58.2882E-03    -19.2891E-03    -19.8946E-03
            1632               1     58.4439E-03     59.6146E-03    -27.9717E-03    -26.5020E-03
            1633               1     68.3482E-03     73.6376E-03    -22.7636E-03    -21.8390E-03
            1634               1     62.5108E-03     59.2257E-03    -17.3355E-03    -16.9759E-03
            1635               1     48.9939E-03     47.1746E-03    -10.3400E-03    -11.2755E-03
            1636               1     67.7633E-03     68.0134E-03    -18.5132E-03    -18.7071E-03
            1637               1     58.2947E-03     58.7383E-03    -10.7115E-03    -11.5813E-03
            1638               1     73.0403E-03     74.1286E-03    -18.6978E-03    -19.0775E-03
            1639               1     68.8233E-03     69.4608E-03    -11.1526E-03    -11.8923E-03
            1640               1     79.6613E-03     80.7098E-03    -18.9754E-03    -19.7039E-03
            1641               1     77.4484E-03     78.1957E-03    -12.3945E-03    -12.6948E-03
            1642               1     85.1748E-03     86.4716E-03    -20.2605E-03    -20.2781E-03
            1643               1     86.2047E-03     86.0836E-03    -13.0469E-03    -13.3324E-03
            1644               1     91.5305E-03     92.2367E-03    -20.8236E-03    -21.5085E-03
            1645               1     92.9460E-03     94.9760E-03    -14.3923E-03    -14.2691E-03
            1646               1     97.1699E-03     98.8305E-03    -23.4481E-03    -22.9829E-03
            1647               1     102.971E-03     101.234E-03    -15.8143E-03    -15.7688E-03
            1648               1     103.933E-03     104.433E-03    -25.4796E-03    -26.3661E-03
            1649               1     108.747E-03     113.695E-03    -18.8587E-03    -18.3433E-03
            1650               1     110.225E-03     110.457E-03    -31.5153E-03    -30.7870E-03
            1651               1     123.234E-03     117.221E-03    -23.4622E-03    -23.9058E-03
            1652               1     102.473E-03     105.543E-03    -32.4548E-03    -30.3999E-03
            1653               1     127.134E-03     134.760E-03    -28.8863E-03    -26.8723E-03
            1654               1     108.488E-03     106.350E-03    -10.9129E-03    -11.3515E-03
            1655               1     107.255E-03     107.926E-03    -3.07254E-03    -5.09336E-03
            1656               1     119.351E-03     120.126E-03    -12.9293E-03    -13.2705E-03
            1657               1     120.387E-03     117.455E-03    -5.73206E-03    -6.75709E-03
            1658               1     127.799E-03     128.547E-03    -15.2141E-03    -15.7583E-03
            1659               1     129.500E-03     132.793E-03    -8.04951E-03    -9.04507E-03
            1660               1     134.270E-03     136.794E-03    -16.5998E-03    -17.2131E-03
            1661               1     140.480E-03     139.530E-03    -10.6327E-03    -11.3115E-03
            1662               1     141.781E-03     142.502E-03    -18.2685E-03    -18.8336E-03
            1663               1     146.426E-03     149.029E-03    -11.6830E-03    -11.8893E-03
            1664               1     146.324E-03     148.906E-03    -19.8724E-03    -19.7838E-03
            1665               1     156.410E-03     155.614E-03    -13.3578E-03    -13.5630E-03
            1666               1     153.455E-03     153.972E-03    -21.3654E-03    -21.8566E-03
            1667               1     160.877E-03     164.538E-03    -15.2742E-03    -14.9987E-03
            1668               1     157.647E-03     160.665E-03    -24.9096E-03    -24.0516E-03
            1669               1     171.719E-03     169.042E-03    -17.4367E-03    -17.1737E-03
            1670               1     164.311E-03     164.668E-03    -28.0107E-03    -28.8509E-03
            1671               1     175.093E-03     182.411E-03    -22.0132E-03    -21.0423E-03
            1672               1     168.468E-03     169.109E-03    -36.0528E-03    -35.0285E-03
            1673               1     190.190E-03     181.315E-03    -28.5024E-03    -28.7437E-03
            1674               1     155.248E-03     159.149E-03    -37.8447E-03    -35.1460E-03
            1675               1     190.487E-03     200.225E-03    -35.8821E-03    -32.7472E-03
            1676               1     161.089E-03     160.125E-03    -4.96909E-03    -6.16640E-03
            1677               1     171.472E-03     174.986E-03     3.79907E-03     608.526E-06
            1678               1     177.673E-03     178.908E-03    -7.76953E-03    -8.44169E-03
            1679               1     187.435E-03     181.392E-03    -1.27730E-03    -2.38816E-03
            1680               1     187.780E-03     188.461E-03    -12.5047E-03    -12.9146E-03
            1681               1     194.724E-03     200.471E-03    -5.57338E-03    -6.94712E-03
            1682               1     194.063E-03     197.872E-03    -14.8735E-03    -15.7808E-03
            1683               1     207.109E-03     205.229E-03    -9.71804E-03    -10.5560E-03
            1684               1     202.302E-03     203.080E-03    -17.6907E-03    -18.2082E-03
            1685               1     211.535E-03     215.537E-03    -11.4365E-03    -11.7204E-03
            1686               1     205.911E-03     209.644E-03    -19.8992E-03    -19.7886E-03
            1687               1     222.310E-03     221.092E-03    -13.8454E-03    -14.0186E-03
            1688               1     213.340E-03     213.933E-03    -22.0136E-03    -22.4338E-03
            1689               1     225.112E-03     230.082E-03    -16.4659E-03    -16.0707E-03
            1690               1     216.266E-03     220.470E-03    -26.5443E-03    -25.3617E-03
            1691               1     236.424E-03     232.911E-03    -19.2303E-03    -18.7412E-03
            1692               1     222.471E-03     222.831E-03    -30.4957E-03    -31.3467E-03
            1693               1     237.649E-03     247.076E-03    -25.1984E-03    -23.7937E-03
            1694               1     224.755E-03     225.707E-03    -40.4669E-03    -39.1787E-03
            1695               1     253.179E-03     241.677E-03    -33.3767E-03    -33.4093E-03
            1696               1     206.314E-03     210.735E-03    -43.0270E-03    -39.7239E-03
            1697               1     250.183E-03     261.814E-03    -42.6055E-03    -38.4223E-03
            1698               1     212.679E-03     213.030E-03    -2.18791E-03    -3.77353E-03
            1699               1     232.360E-03     238.530E-03     7.73596E-03     3.33399E-03
            1700               1     234.860E-03     236.278E-03    -5.64362E-03    -7.02693E-03
            1701               1     250.266E-03     242.258E-03    -151.492E-06    -1.16271E-03
            1702               1     244.470E-03     246.582E-03    -14.5714E-03    -13.5896E-03
            1703               1     257.377E-03     263.702E-03    -6.97148E-03    -8.76097E-03
            1704               1     251.844E-03     255.569E-03    -17.6277E-03    -19.7292E-03
            1705               1     267.317E-03     268.399E-03    -14.3677E-03    -14.4785E-03
            1706               1     257.428E-03     261.322E-03    -25.9726E-03    -24.2845E-03
            1707               1     275.701E-03     274.315E-03    -18.1466E-03    -18.0071E-03
            1708               1     261.945E-03     263.812E-03    -29.9548E-03    -31.8606E-03
            1709               1     278.914E-03     288.275E-03    -26.3011E-03    -24.5109E-03
            1710               1     264.597E-03     265.390E-03    -42.6399E-03    -41.0385E-03
            1711               1     293.542E-03     280.798E-03    -35.8299E-03    -35.7029E-03
            1712               1     242.133E-03     247.035E-03    -45.7553E-03    -42.2855E-03
            1713               1     289.212E-03     301.799E-03    -46.7775E-03    -41.8412E-03
            1714               1     1.17670E-03     1.15851E-03    -678.945E-06    -667.276E-06
            1715               1     1.21351E-03     1.17511E-03    -700.218E-06    -678.258E-06
            1716               1     1.17386E-03     1.17080E-03    -677.523E-06    -675.461E-06
            1717               1     1.07697E-03     1.07328E-03    -618.655E-06    -608.743E-06
            1718               1     1.11986E-03     1.07802E-03    -643.207E-06    -620.766E-06
            1719               1     1.07700E-03     1.07154E-03    -619.607E-06    -618.628E-06
            1720               1     894.951E-06     926.940E-06    -509.298E-06    -500.279E-06
            1721               1     927.186E-06     886.941E-06    -524.627E-06    -506.457E-06
            1722               1     887.069E-06     879.090E-06    -509.092E-06    -504.089E-06
            1723               1     660.599E-06     732.292E-06    -364.769E-06    -350.594E-06
            1724               1     677.449E-06     628.815E-06    -364.741E-06    -351.946E-06
            1725               1     639.135E-06     626.996E-06    -356.051E-06    -361.330E-06
            1726               1     303.617E-06     534.787E-06    -125.538E-06    -122.648E-06
            1727               1     488.253E-06     404.972E-06    -228.966E-06    -207.243E-06
            1728               1     319.111E-06     319.387E-06    -143.494E-06    -139.079E-06
            1729               1     715.053E-06     938.342E-06     218.975E-06     215.288E-06
            1730               1     610.961E-06     532.767E-06     316.148E-06     284.996E-06
            1731               1     318.676E-06     465.603E-06     150.487E-06     175.550E-06
            2140               1     602.880E-06     804.306E-06     149.594E-06     142.796E-06
            2141               1     564.839E-06     658.294E-06     323.263E-06     326.031E-06
            2142               1     264.415E-06     300.655E-06     65.7290E-06     114.797E-06
            2143               1     730.520E-06     720.188E-06     400.595E-06     393.931E-06
            2144               1     227.946E-06     356.386E-06     120.660E-06     120.954E-06
            2145               1     638.335E-06     565.419E-06     303.921E-06     310.996E-06
            2146               1     149.595E-03     199.346E-03    -7.04782E-03    -9.45987E-03
            2147               1     202.359E-03     143.285E-03    -4.83462E-03    -4.45474E-03
            2148               1     137.447E-03     175.389E-03    -5.50922E-03    -5.68500E-03
            2149               1     144.344E-03     121.917E-03    -8.37042E-03    -6.50099E-03
            2150               1     108.706E-03     106.879E-03    -4.47042E-03    -558.601E-06
            2151               1     105.471E-03     129.080E-03    -12.2030E-03    -11.6114E-03
            2152               1     111.802E-03     87.3005E-03     5.46979E-03     6.21083E-03
            2153               1     108.095E-03     149.827E-03     13.7714E-03     11.8338E-03
            2154               1     147.521E-03     101.887E-03     15.5226E-03     16.5754E-03
            2155               1     91.6953E-03     114.967E-03     14.1014E-03     15.0270E-03
            2156               1     86.8528E-03     78.5324E-03     14.2780E-03     13.9676E-03
            2157               1     67.9629E-03     60.3226E-03     15.6122E-03     18.4077E-03
            2158               1     50.8517E-03     75.9789E-03     8.85576E-03     8.87852E-03
            2159               1     72.0350E-03     55.5925E-03     25.6572E-03     26.4575E-03
            2160               1     87.3250E-03     112.232E-03     35.6985E-03     33.0473E-03
            2161               1     107.716E-03     84.0251E-03     38.7444E-03     38.3115E-03
            2162               1     74.6684E-03     82.2313E-03     36.6280E-03     36.6866E-03
            2163               1     60.0585E-03     64.5711E-03     32.3116E-03     33.7930E-03
            2164               1     64.9209E-03     68.1977E-03     35.7689E-03     39.1063E-03
            2165               1     52.0094E-03     55.2922E-03     29.8802E-03     29.8174E-03
            2166               1     79.5755E-03     83.1637E-03     45.7916E-03     46.3260E-03
            2167               1     101.373E-03     96.2761E-03     57.4711E-03     51.0159E-03
            2168               1     108.082E-03     98.3222E-03     60.6679E-03     56.2965E-03
            2169               1     97.1120E-03     95.5312E-03     55.9246E-03     55.1095E-03
            2170               1     99.2721E-03     99.9924E-03     53.9701E-03     57.6138E-03
            2171               1     96.0070E-03     121.382E-03     54.0301E-03     62.4781E-03
            2172               1     101.919E-03     92.8412E-03     51.2733E-03     50.9233E-03
            2173               1     120.746E-03     131.675E-03     64.9052E-03     65.0714E-03
            2174               1     118.295E-03     113.857E-03     67.4923E-03     64.8957E-03
            2175               1     123.260E-03     123.596E-03     69.6835E-03     70.1421E-03
            2176               1     134.989E-03     145.820E-03     75.9567E-03     78.9781E-03
            2177               1     159.845E-03     147.806E-03     79.5822E-03     79.5405E-03
            2178               1     163.641E-03     181.011E-03     88.2745E-03     87.7574E-03
            2179               1     148.000E-03     138.729E-03     67.4800E-03     67.4461E-03
            2180               1     157.679E-03     169.605E-03     78.5370E-03     78.3963E-03
            2181               1     130.125E-03     138.267E-03     72.6980E-03     77.9683E-03
            2182               1     164.451E-03     167.605E-03     89.4337E-03     91.9513E-03
            2183               1     174.557E-03     184.703E-03     92.7693E-03     95.9712E-03
            2184               1     221.064E-03     203.264E-03     112.084E-03     107.343E-03
            2185               1     221.803E-03     226.123E-03     114.488E-03     108.320E-03
            2186               1     192.148E-03     184.016E-03     91.9207E-03     90.8355E-03
            2187               1     202.412E-03     214.329E-03     94.6928E-03     95.5314E-03
            2188               1     212.187E-03     216.768E-03     95.3259E-03     94.8184E-03
            2189               1     214.041E-03     221.806E-03     101.041E-03     101.782E-03
            2190               1     191.893E-03     193.329E-03     87.0304E-03     89.2155E-03
            2191               1     217.921E-03     216.353E-03     98.3866E-03     98.6139E-03
            2192               1     213.560E-03     217.188E-03     104.960E-03     104.885E-03
            2193               1     216.907E-03     218.881E-03     111.670E-03     110.626E-03
            2194               1     202.425E-03     202.761E-03     99.2221E-03     99.9532E-03
            2195               1     210.396E-03     214.114E-03     105.769E-03     107.239E-03
            2196               1     174.221E-03     176.997E-03     85.7089E-03     85.1632E-03
            2197               1     194.104E-03     202.549E-03     96.9729E-03     100.884E-03
            2198               1     155.270E-03     161.832E-03     78.9814E-03     81.2193E-03
            2199               1     184.043E-03     186.594E-03     92.7246E-03     92.5376E-03
            2200               1     135.199E-03     136.281E-03     70.7742E-03     72.5944E-03
            2201               1     175.128E-03     170.033E-03     85.9146E-03     84.5426E-03
            2202               1     601.998E-06     684.620E-06     343.289E-06     350.027E-06
            2203               1     591.489E-06     676.012E-06     338.307E-06     339.000E-06
            2204               1     579.834E-06     668.564E-06     332.376E-06     339.487E-06
            2205               1     582.955E-06     664.483E-06     335.621E-06     336.630E-06
            2206               1     576.815E-06     661.910E-06     332.552E-06     338.676E-06
            2207               1     579.537E-06     657.797E-06     334.509E-06     336.711E-06
            2208               1     576.872E-06     655.704E-06     332.974E-06     338.000E-06
            2209               1     579.110E-06     652.284E-06     333.932E-06     337.052E-06
            2210               1     578.998E-06     649.892E-06     333.318E-06     337.607E-06
            2211               1     581.101E-06     647.187E-06     333.612E-06     337.318E-06
            2212               1     582.889E-06     644.320E-06     333.549E-06     337.368E-06
            2213               1     585.255E-06     642.339E-06     333.415E-06     337.504E-06
            2214               1     588.496E-06     638.956E-06     333.702E-06     337.217E-06
            2215               1     591.527E-06     637.696E-06     333.325E-06     337.620E-06
            2216               1     595.646E-06     633.932E-06     333.726E-06     337.182E-06
            2217               1     599.711E-06     632.244E-06     333.199E-06     337.212E-06
            2218               1     605.463E-06     631.429E-06     334.088E-06     338.718E-06
            2219               1     620.558E-06     645.570E-06     342.920E-06     344.653E-06
            2220               1     553.902E-06     567.947E-06     291.005E-06     296.911E-06
            2221               1     623.665E-06     638.666E-06     339.683E-06     347.677E-06
            2222               1     607.306E-06     630.452E-06     331.129E-06     344.613E-06
            2223               1     617.083E-06     618.583E-06     339.664E-06     339.925E-06
            2224               1     602.136E-06     627.520E-06     332.534E-06     347.233E-06
            2225               1     609.285E-06     613.513E-06     338.849E-06     340.797E-06
            2226               1     597.933E-06     618.985E-06     333.807E-06     345.838E-06
            2227               1     601.296E-06     609.986E-06     337.493E-06     342.156E-06
            2228               1     594.520E-06     611.607E-06     334.999E-06     344.650E-06
            2229               1     594.706E-06     606.644E-06     336.517E-06     343.132E-06
            2230               1     591.295E-06     605.712E-06     335.782E-06     343.867E-06
            2231               1     589.518E-06     603.561E-06     335.885E-06     343.763E-06
            2232               1     588.491E-06     601.088E-06     336.299E-06     343.350E-06
            2233               1     585.551E-06     600.948E-06     335.471E-06     344.173E-06
            2234               1     586.130E-06     597.744E-06     336.564E-06     343.089E-06
            2235               1     583.317E-06     598.591E-06     335.560E-06     344.230E-06
            2236               1     582.923E-06     596.394E-06     335.830E-06     343.482E-06
            2237               1     580.762E-06     590.358E-06     334.939E-06     340.402E-06
            2238               1     591.420E-06     616.820E-06     341.336E-06     355.960E-06
            2239               1     698.276E-06     684.451E-06     403.148E-06     395.121E-06
            2240               1     686.862E-06     618.908E-06     345.514E-06     350.544E-06
            2241               1     675.726E-06     596.633E-06     340.636E-06     341.398E-06
            2242               1     666.096E-06     603.867E-06     339.137E-06     346.178E-06
            2243               1     671.596E-06     596.837E-06     342.385E-06     343.523E-06
            2244               1     663.024E-06     601.103E-06     340.450E-06     346.502E-06
            2245               1     664.843E-06     597.017E-06     342.348E-06     344.583E-06
            2246               1     658.897E-06     599.541E-06     341.084E-06     346.093E-06
            2247               1     658.431E-06     598.357E-06     342.019E-06     345.149E-06
            2248               1     654.391E-06     600.229E-06     341.472E-06     345.754E-06
            2249               1     652.628E-06     601.167E-06     341.756E-06     345.466E-06
            2250               1     649.672E-06     603.011E-06     341.709E-06     345.526E-06
            2251               1     647.304E-06     605.647E-06     341.570E-06     345.661E-06
            2252               1     644.903E-06     607.719E-06     341.863E-06     345.371E-06
            2253               1     642.410E-06     611.852E-06     341.471E-06     345.771E-06
            2254               1     639.996E-06     614.397E-06     341.843E-06     345.343E-06
            2255               1     637.816E-06     618.764E-06     341.316E-06     345.301E-06
            2256               1     636.543E-06     624.499E-06     342.382E-06     346.530E-06
            2257               1     642.571E-06     645.465E-06     350.535E-06     352.831E-06
            2258               1     567.124E-06     578.968E-06     296.425E-06     306.834E-06
            2259               1     214.530E-03     222.515E-03     98.1688E-03     99.1039E-03
            2260               1     216.241E-03     225.618E-03     98.9683E-03     99.1907E-03
            2261               1     217.858E-03     228.473E-03     98.3930E-03     99.3870E-03
            2262               1     219.784E-03     231.400E-03     98.7399E-03     99.0931E-03
            2263               1     221.510E-03     234.529E-03     98.4949E-03     99.3126E-03
            2264               1     223.464E-03     237.561E-03     98.6495E-03     99.1611E-03
            2265               1     225.291E-03     240.760E-03     98.5559E-03     99.2530E-03
            2266               1     227.243E-03     243.918E-03     98.6068E-03     99.2022E-03
            2267               1     229.156E-03     247.169E-03     98.5839E-03     99.2248E-03
            2268               1     231.109E-03     250.443E-03     98.5867E-03     99.2220E-03
            2269               1     233.106E-03     253.729E-03     98.5998E-03     99.2063E-03
            2270               1     235.039E-03     257.140E-03     98.5661E-03     99.2394E-03
            2271               1     237.135E-03     260.379E-03     98.6055E-03     99.1642E-03
            2272               1     239.010E-03     264.025E-03     98.5210E-03     99.2526E-03
            2273               1     240.866E-03     266.736E-03     98.3819E-03     98.8830E-03
            2274               1     243.250E-03     271.294E-03     98.3746E-03     99.1282E-03
            2275               1     238.755E-03     267.735E-03     94.8049E-03     95.3994E-03
            2276               1     253.226E-03     284.157E-03     97.9006E-03     98.2865E-03
            2277               1     161.404E-03     198.743E-03     44.6396E-03     46.1658E-03
            2278               1     216.864E-03     213.418E-03     96.5656E-03     97.0519E-03
            2279               1     220.428E-03     217.673E-03     97.0685E-03     98.0166E-03
            2280               1     223.970E-03     218.333E-03     97.2774E-03     97.5905E-03
            2281               1     226.382E-03     220.977E-03     97.0433E-03     97.9227E-03
            2282               1     229.895E-03     222.358E-03     97.2488E-03     97.7043E-03
            2283               1     232.708E-03     224.564E-03     97.1102E-03     97.8495E-03
            2284               1     236.027E-03     226.315E-03     97.1962E-03     97.7627E-03
            2285               1     239.137E-03     228.345E-03     97.1496E-03     97.8098E-03
            2286               1     242.409E-03     230.275E-03     97.1692E-03     97.7903E-03
            2287               1     245.683E-03     232.263E-03     97.1704E-03     97.7898E-03
            2288               1     248.988E-03     234.283E-03     97.1506E-03     97.8098E-03
            2289               1     252.369E-03     236.280E-03     97.1982E-03     97.7718E-03
            2290               1     255.742E-03     238.368E-03     97.1243E-03     97.8463E-03
            2291               1     259.223E-03     240.425E-03     97.3090E-03     97.7965E-03
            2292               1     262.796E-03     242.648E-03     97.1178E-03     97.9487E-03
            2293               1     266.613E-03     245.234E-03     98.3101E-03     98.6811E-03
            2294               1     271.866E-03     248.718E-03     97.4196E-03     98.3308E-03
            2295               1     280.535E-03     258.547E-03     111.533E-03     111.953E-03
            2296               1     308.546E-03     281.125E-03     97.8247E-03     98.3911E-03
            2297               1     216.042E-03     220.622E-03     109.275E-03     110.411E-03
            2298               1     220.068E-03     225.166E-03     110.500E-03     110.844E-03
            2299               1     223.429E-03     229.283E-03     109.895E-03     110.491E-03
            2300               1     226.942E-03     233.478E-03     109.570E-03     109.790E-03
            2301               1     230.793E-03     238.063E-03     109.047E-03     109.463E-03
            2302               1     234.607E-03     242.668E-03     108.604E-03     108.863E-03
            2303               1     238.887E-03     247.734E-03     108.228E-03     108.605E-03
            2304               1     242.795E-03     252.466E-03     107.651E-03     107.944E-03
            2305               1     247.342E-03     257.846E-03     107.297E-03     107.653E-03
            2306               1     250.763E-03     262.129E-03     106.217E-03     106.529E-03
            2307               1     255.369E-03     267.608E-03     105.709E-03     106.050E-03
            2308               1     257.218E-03     270.399E-03     103.374E-03     103.700E-03
            2309               1     261.598E-03     275.711E-03     102.401E-03     102.735E-03
            2310               1     259.438E-03     274.742E-03     96.9615E-03     97.3339E-03
            2311               1     262.271E-03     278.611E-03     94.4272E-03     94.7577E-03
            2312               1     249.712E-03     267.873E-03     80.8789E-03     81.3572E-03
            2313               1     239.739E-03     257.981E-03     71.7218E-03     71.4663E-03
            2314               1     203.939E-03     226.823E-03     45.0738E-03     46.9541E-03
            2315               1     156.397E-03     185.248E-03     20.9233E-03     23.6829E-03
            2316               1     211.733E-03     216.720E-03     107.121E-03     108.112E-03
            2317               1     216.310E-03     221.756E-03     106.969E-03     108.602E-03
            2318               1     219.585E-03     224.095E-03     106.584E-03     107.143E-03
            2319               1     223.246E-03     228.726E-03     105.848E-03     107.021E-03
            2320               1     227.538E-03     232.754E-03     105.691E-03     106.255E-03
            2321               1     231.784E-03     237.913E-03     105.209E-03     106.226E-03
            2322               1     236.418E-03     242.573E-03     105.056E-03     105.721E-03
            2323               1     241.271E-03     248.144E-03     104.736E-03     105.672E-03
            2324               1     245.841E-03     252.928E-03     104.364E-03     105.102E-03
            2325               1     251.221E-03     258.899E-03     104.063E-03     104.948E-03
            2326               1     255.237E-03     263.248E-03     103.198E-03     103.974E-03
            2327               1     261.323E-03     269.869E-03     102.793E-03     103.654E-03
            2328               1     263.910E-03     272.895E-03     100.893E-03     101.698E-03
            2329               1     271.618E-03     281.060E-03     100.335E-03     101.204E-03
            2330               1     270.909E-03     281.050E-03     95.9029E-03     96.8289E-03
            2331               1     281.411E-03     291.464E-03     95.0619E-03     95.8165E-03
            2332               1     268.774E-03     281.583E-03     79.6861E-03     80.9649E-03
            2333               1     259.860E-03     267.494E-03     69.4981E-03     68.7888E-03
            2334               1     215.810E-03     213.776E-03     46.2324E-03     46.1847E-03
            2335               1     208.164E-03     212.038E-03     103.607E-03     104.830E-03
            2336               1     211.097E-03     213.891E-03     102.822E-03     103.311E-03
            2337               1     215.170E-03     218.800E-03     102.450E-03     103.827E-03
            2338               1     219.564E-03     222.248E-03     102.341E-03     102.972E-03
            2339               1     223.868E-03     227.439E-03     101.900E-03     103.198E-03
            2340               1     229.102E-03     231.990E-03     102.103E-03     102.847E-03
            2341               1     234.121E-03     237.607E-03     101.862E-03     103.039E-03
            2342               1     239.568E-03     242.669E-03     102.021E-03     102.870E-03
            2343               1     245.249E-03     248.677E-03     101.896E-03     102.989E-03
            2344               1     250.735E-03     253.970E-03     101.997E-03     102.906E-03
            2345               1     257.228E-03     260.636E-03     101.943E-03     102.995E-03
            2346               1     262.598E-03     265.915E-03     102.093E-03     103.027E-03
            2347               1     270.657E-03     274.042E-03     102.239E-03     103.280E-03
            2348               1     275.656E-03     279.018E-03     102.716E-03     103.647E-03
            2349               1     287.777E-03     290.882E-03     103.842E-03     104.858E-03
            2350               1     289.982E-03     293.706E-03     103.494E-03     104.591E-03
            2351               1     312.175E-03     314.830E-03     105.571E-03     107.002E-03
            2352               1     292.435E-03     296.044E-03     85.0327E-03     83.8071E-03
            2353               1     250.655E-03     249.970E-03     55.0729E-03     46.2449E-03
            2354               1     198.037E-03     198.919E-03     95.9609E-03     96.3043E-03
            2355               1     204.585E-03     205.421E-03     97.6972E-03     98.3049E-03
            2356               1     210.091E-03     210.424E-03     98.1215E-03     98.5584E-03
            2357               1     214.991E-03     215.974E-03     98.2196E-03     99.2914E-03
            2358               1     220.782E-03     220.687E-03     98.7190E-03     99.3003E-03
            2359               1     226.076E-03     226.344E-03     98.7004E-03     99.7291E-03
            2360               1     232.126E-03     231.533E-03     99.1753E-03     99.8513E-03
            2361               1     237.955E-03     237.390E-03     99.2172E-03     100.158E-03
            2362               1     244.270E-03     243.072E-03     99.7910E-03     100.529E-03
            2363               1     250.722E-03     249.343E-03     99.9471E-03     100.839E-03
            2364               1     257.471E-03     255.595E-03     100.967E-03     101.735E-03
            2365               1     264.847E-03     262.670E-03     101.360E-03     102.233E-03
            2366               1     272.312E-03     269.731E-03     103.539E-03     104.300E-03
            2367               1     281.469E-03     278.461E-03     104.526E-03     105.378E-03
            2368               1     289.724E-03     286.492E-03     109.067E-03     109.725E-03
            2369               1     303.918E-03     299.830E-03     111.021E-03     111.943E-03
            2370               1     311.547E-03     307.212E-03     117.870E-03     118.295E-03
            2371               1     347.322E-03     344.235E-03     115.630E-03     117.743E-03
            2372               1     306.739E-03     320.404E-03     60.6617E-03     62.8494E-03
            2373               1     185.164E-03     183.232E-03     88.5392E-03     88.3645E-03
            2374               1     197.023E-03     195.038E-03     92.2004E-03     92.3541E-03
            2375               1     204.068E-03     202.324E-03     93.6662E-03     93.9958E-03
            2376               1     211.116E-03     208.311E-03     94.7535E-03     94.9780E-03
            2377               1     217.130E-03     214.248E-03     95.2617E-03     95.6706E-03
            2378               1     223.640E-03     219.661E-03     95.8614E-03     96.1355E-03
            2379               1     229.715E-03     225.334E-03     96.1359E-03     96.5174E-03
            2380               1     236.406E-03     231.082E-03     96.7920E-03     97.0863E-03
            2381               1     242.774E-03     236.865E-03     97.0838E-03     97.4452E-03
            2382               1     249.996E-03     243.254E-03     98.2200E-03     98.5238E-03
            2383               1     256.747E-03     249.324E-03     98.7040E-03     99.0629E-03
            2384               1     264.952E-03     256.790E-03     101.035E-03     101.331E-03
            2385               1     272.107E-03     263.239E-03     101.909E-03     102.280E-03
            2386               1     282.002E-03     272.536E-03     106.692E-03     106.930E-03
            2387               1     289.416E-03     279.314E-03     107.712E-03     108.147E-03
            2388               1     302.884E-03     292.317E-03     117.020E-03     116.932E-03
            2389               1     311.779E-03     300.823E-03     114.520E-03     115.193E-03
            2390               1     341.780E-03     330.425E-03     132.266E-03     133.013E-03
            2391               1     423.467E-03     404.870E-03     104.108E-03     112.196E-03
            2392               1     43.7064E-03     42.9711E-03     24.7106E-03     24.6557E-03
            2393               1     41.0801E-03     40.5490E-03     22.5534E-03     22.8469E-03
            2394               1     40.4713E-03     39.2141E-03     21.8371E-03     21.7575E-03
            2395               1     38.9991E-03     37.8700E-03     20.6244E-03     20.7253E-03
            2396               1     38.5025E-03     37.1294E-03     20.1823E-03     20.1506E-03
            2397               1     37.7533E-03     36.4076E-03     19.5799E-03     19.6111E-03
            2398               1     37.3629E-03     35.9397E-03     19.2885E-03     19.2823E-03
            2399               1     37.0263E-03     35.5926E-03     19.0027E-03     19.0108E-03
            2400               1     36.5498E-03     35.0855E-03     18.6808E-03     18.6826E-03
            2401               1     36.3704E-03     34.8837E-03     18.5113E-03     18.5123E-03
            2402               1     35.5166E-03     34.0155E-03     17.9712E-03     17.9797E-03
            2403               1     35.2194E-03     33.6746E-03     17.7564E-03     17.7491E-03
            2404               1     33.4649E-03     31.9453E-03     16.7221E-03     16.7480E-03
            2405               1     32.5269E-03     30.8991E-03     16.2472E-03     16.2096E-03
            2406               1     28.9114E-03     27.4175E-03     14.3300E-03     14.3783E-03
            2407               1     26.3959E-03     24.6632E-03     13.3821E-03     13.2212E-03
            2408               1     19.3298E-03     18.1075E-03     10.2149E-03     10.1697E-03
            2409               1     16.3385E-03     15.9245E-03     9.38491E-03     8.62150E-03
            2410               1     23.7919E-03     30.8798E-03     4.15857E-03     2.14389E-03
            2411               1     40.7931E-03     41.2817E-03     22.6892E-03     23.3062E-03
            2412               1     39.9876E-03     39.2165E-03     21.7765E-03     21.7022E-03
            2413               1     38.6500E-03     38.1829E-03     20.4520E-03     20.7428E-03
            2414               1     38.3126E-03     37.3107E-03     20.1511E-03     20.0755E-03
            2415               1     37.5660E-03     36.7213E-03     19.4986E-03     19.6029E-03
            2416               1     37.2918E-03     36.3008E-03     19.3448E-03     19.3277E-03
            2417               1     37.0101E-03     36.0369E-03     19.0678E-03     19.0967E-03
            2418               1     36.7093E-03     35.7114E-03     18.8994E-03     18.9029E-03
            2419               1     36.6741E-03     35.6519E-03     18.7814E-03     18.7885E-03
            2420               1     36.2156E-03     35.2010E-03     18.5058E-03     18.5168E-03
            2421               1     36.3070E-03     35.2405E-03     18.4418E-03     18.4396E-03
            2422               1     35.4308E-03     34.4151E-03     17.9156E-03     17.9441E-03
            2423               1     35.4774E-03     34.3185E-03     17.8092E-03     17.7772E-03
            2424               1     33.5759E-03     32.5965E-03     16.7343E-03     16.8009E-03
            2425               1     32.9311E-03     31.5856E-03     16.3607E-03     16.2229E-03
            2426               1     28.6854E-03     27.7245E-03     14.3435E-03     14.3568E-03
            2427               1     25.4412E-03     23.8349E-03     13.1297E-03     12.6436E-03
            2428               1     17.6107E-03     16.4259E-03     10.1520E-03     9.23553E-03
            2429               1     14.2590E-03     10.8027E-03    -1.12773E-03    -1.16538E-03
            2430               1     40.1143E-03     39.9286E-03     22.3268E-03     22.2587E-03
            2431               1     38.3557E-03     38.3181E-03     20.5148E-03     20.7685E-03
            2432               1     37.4121E-03     36.8798E-03     19.7852E-03     19.6707E-03
            2433               1     36.7714E-03     36.4075E-03     19.0797E-03     19.2377E-03
            2434               1     36.5984E-03     36.0771E-03     19.0503E-03     19.0221E-03
            2435               1     36.5110E-03     36.0022E-03     18.8547E-03     18.9073E-03
            2436               1     36.4044E-03     35.8792E-03     18.8568E-03     18.8601E-03
            2437               1     36.5221E-03     35.9683E-03     18.8196E-03     18.8333E-03
            2438               1     36.3550E-03     35.8195E-03     18.7589E-03     18.7695E-03
            2439               1     36.6219E-03     36.0471E-03     18.7907E-03     18.7941E-03
            2440               1     36.3094E-03     35.7765E-03     18.6366E-03     18.6541E-03
            2441               1     36.7519E-03     36.1289E-03     18.7214E-03     18.7099E-03
            2442               1     36.0000E-03     35.5054E-03     18.3326E-03     18.3721E-03
            2443               1     36.3981E-03     35.6545E-03     18.3465E-03     18.2831E-03
            2444               1     34.1630E-03     33.7674E-03     17.2216E-03     17.2953E-03
            2445               1     32.6325E-03     31.8630E-03     16.3358E-03     16.1982E-03
            2446               1     26.3627E-03     26.0421E-03     13.6489E-03     13.5504E-03
            2447               1     13.7568E-03     14.9938E-03     7.35558E-03     7.85052E-03
            2448               1     2.83989E-03     1.56410E-03    -1.41020E-03    -413.563E-06
            2449               1     41.6761E-03     41.1097E-03     22.8522E-03     22.4039E-03
            2450               1     37.5251E-03     37.3296E-03     20.0549E-03     19.8449E-03
            2451               1     36.1550E-03     36.0532E-03     18.8707E-03     18.9141E-03
            2452               1     35.5344E-03     35.5661E-03     18.6053E-03     18.5921E-03
            2453               1     35.6734E-03     35.5685E-03     18.4924E-03     18.5233E-03
            2454               1     35.6486E-03     35.6337E-03     18.5815E-03     18.5958E-03
            2455               1     35.9789E-03     35.8725E-03     18.6556E-03     18.6633E-03
            2456               1     36.0054E-03     35.9511E-03     18.7380E-03     18.7518E-03
            2457               1     36.3681E-03     36.2674E-03     18.8371E-03     18.8406E-03
            2458               1     36.3711E-03     36.3028E-03     18.8983E-03     18.9090E-03
            2459               1     36.8625E-03     36.7538E-03     19.0400E-03     19.0427E-03
            2460               1     36.7716E-03     36.7134E-03     19.0729E-03     19.0836E-03
            2461               1     37.4353E-03     37.2828E-03     19.2419E-03     19.2338E-03
            2462               1     36.7492E-03     36.7448E-03     18.9883E-03     19.0112E-03
            2463               1     36.8703E-03     36.7008E-03     18.7295E-03     18.7220E-03
            2464               1     33.4414E-03     33.6699E-03     16.9274E-03     17.0558E-03
            2465               1     27.8567E-03     28.7374E-03     13.5352E-03     13.9461E-03
            2466               1     18.6091E-03     19.2442E-03     7.30790E-03     7.99447E-03
            2467               1     9.82054E-03     11.0749E-03    -1.46705E-03    -893.049E-06
            2468               1     42.0233E-03     41.3087E-03     22.3542E-03     21.7596E-03
            2469               1     37.1337E-03     37.0799E-03     19.5108E-03     19.3014E-03
            2470               1     35.0890E-03     35.6567E-03     18.5148E-03     18.5300E-03
            2471               1     35.0627E-03     35.2390E-03     18.3200E-03     18.2437E-03
            2472               1     34.7627E-03     35.2931E-03     18.2711E-03     18.3152E-03
            2473               1     35.2893E-03     35.5785E-03     18.4451E-03     18.4151E-03
            2474               1     35.3608E-03     35.7988E-03     18.5588E-03     18.5833E-03
            2475               1     35.8166E-03     36.1615E-03     18.7180E-03     18.7097E-03
            2476               1     35.9591E-03     36.3550E-03     18.8638E-03     18.8755E-03
            2477               1     36.3894E-03     36.7562E-03     19.0032E-03     19.0068E-03
            2478               1     36.5784E-03     36.9556E-03     19.2041E-03     19.2045E-03
            2479               1     37.0965E-03     37.4659E-03     19.3521E-03     19.3662E-03
            2480               1     37.2190E-03     37.5896E-03     19.5681E-03     19.5529E-03
            2481               1     37.7013E-03     38.0872E-03     19.5627E-03     19.6018E-03
            2482               1     36.8747E-03     37.3167E-03     19.2238E-03     19.2266E-03
            2483               1     36.0493E-03     36.6886E-03     18.0242E-03     18.2015E-03
            2484               1     30.7025E-03     31.6716E-03     13.9665E-03     14.4801E-03
            2485               1     24.3248E-03     25.9817E-03     8.25234E-03     8.83070E-03
            2486               1     21.9057E-03     21.6151E-03    -1.24332E-03    -335.757E-06
            2487               1     40.0436E-03     40.5242E-03     20.4918E-03     20.4041E-03
            2488               1     36.3103E-03     37.4987E-03     19.1301E-03     19.2808E-03
            2489               1     35.5180E-03     35.8654E-03     18.6973E-03     18.4475E-03
            2490               1     34.3874E-03     35.4873E-03     18.2366E-03     18.3481E-03
            2491               1     34.9165E-03     35.5128E-03     18.4411E-03     18.3255E-03
            2492               1     34.7540E-03     35.6893E-03     18.4110E-03     18.4587E-03
            2493               1     35.2651E-03     36.0147E-03     18.6086E-03     18.5707E-03
            2494               1     35.3906E-03     36.2528E-03     18.7249E-03     18.7437E-03
            2495               1     35.7646E-03     36.5773E-03     18.8532E-03     18.8473E-03
            2496               1     36.0133E-03     36.8394E-03     19.0639E-03     19.0663E-03
            2497               1     36.3109E-03     37.1485E-03     19.1359E-03     19.1490E-03
            2498               1     36.6621E-03     37.4514E-03     19.4524E-03     19.4320E-03
            2499               1     36.8774E-03     37.7567E-03     19.4013E-03     19.4493E-03
            2500               1     37.1761E-03     37.9324E-03     19.7080E-03     19.6497E-03
            2501               1     37.0871E-03     38.1152E-03     19.1649E-03     19.2913E-03
            2502               1     36.2774E-03     37.1600E-03     18.5219E-03     18.4883E-03
            2503               1     36.7413E-03     37.7649E-03     16.6310E-03     16.7180E-03
            2504               1     32.3011E-03     33.0894E-03     9.03787E-03     9.80579E-03
            2505               1     30.5029E-03     32.5253E-03     195.583E-06     995.784E-06
            2506               1     38.6239E-03     41.0870E-03     19.8754E-03     20.4538E-03
            2507               1     37.4703E-03     38.2507E-03     19.6365E-03     19.3600E-03
            2508               1     35.1766E-03     36.8662E-03     18.7273E-03     18.9344E-03
            2509               1     35.3702E-03     36.2506E-03     18.8558E-03     18.6571E-03
            2510               1     34.6215E-03     36.0246E-03     18.5037E-03     18.5765E-03
            2511               1     35.0146E-03     36.1372E-03     18.6654E-03     18.5920E-03
            2512               1     34.9363E-03     36.2509E-03     18.6401E-03     18.6663E-03
            2513               1     35.2442E-03     36.4824E-03     18.7496E-03     18.7310E-03
            2514               1     35.4369E-03     36.7174E-03     18.8909E-03     18.8984E-03
            2515               1     35.5959E-03     36.8756E-03     18.9152E-03     18.9177E-03
            2516               1     35.9335E-03     37.1819E-03     19.1718E-03     19.1626E-03
            2517               1     35.8719E-03     37.1893E-03     19.0349E-03     19.0622E-03
            2518               1     36.3212E-03     37.5319E-03     19.3754E-03     19.3346E-03
            2519               1     35.8992E-03     37.3414E-03     18.8630E-03     18.9488E-03
            2520               1     36.4506E-03     37.6771E-03     19.1510E-03     19.0456E-03
            2521               1     36.0791E-03     37.7758E-03     17.8995E-03     18.0133E-03
            2522               1     36.9406E-03     38.3660E-03     17.5525E-03     17.2718E-03
            2523               1     44.0163E-03     45.3525E-03     15.3276E-03     14.8706E-03
            2524               1     47.0073E-03     45.4560E-03     1.18936E-03     1.66406E-03
            2525               1     41.4984E-03     43.1031E-03     21.3332E-03     21.1339E-03
            2526               1     37.4207E-03     39.7339E-03     19.7528E-03     20.0152E-03
            2527               1     36.8873E-03     38.2449E-03     19.6989E-03     19.5369E-03
            2528               1     35.2755E-03     37.1011E-03     18.9307E-03     19.0051E-03
            2529               1     35.2278E-03     36.7722E-03     18.9250E-03     18.8572E-03
            2530               1     34.7587E-03     36.4994E-03     18.6747E-03     18.6985E-03
            2531               1     34.9056E-03     36.5728E-03     18.7288E-03     18.7089E-03
            2532               1     34.9607E-03     36.6847E-03     18.7617E-03     18.7693E-03
            2533               1     35.0569E-03     36.7724E-03     18.7783E-03     18.7751E-03
            2534               1     35.3486E-03     37.0612E-03     18.9595E-03     18.9589E-03
            2535               1     35.2125E-03     36.9575E-03     18.8254E-03     18.8320E-03
            2536               1     35.6150E-03     37.3243E-03     19.0727E-03     19.0600E-03
            2537               1     35.0182E-03     36.8474E-03     18.5864E-03     18.6149E-03
            2538               1     35.5127E-03     37.2852E-03     18.8067E-03     18.7657E-03
            2539               1     34.3248E-03     36.4321E-03     17.6118E-03     17.6834E-03
            2540               1     35.5508E-03     37.6353E-03     17.8312E-03     17.6953E-03
            2541               1     35.3597E-03     38.2529E-03     15.4218E-03     15.4878E-03
            2542               1     41.9996E-03     45.1507E-03     16.9787E-03     16.3710E-03
            2543               1     63.5409E-03     69.5690E-03     11.2533E-03     10.0943E-03
            2544               1     64.4983E-03     62.6355E-03     31.0420E-03     31.2094E-03
            2545               1     63.7567E-03     62.0967E-03     28.4566E-03     28.7902E-03
            2546               1     63.4515E-03     61.6110E-03     26.7951E-03     26.8618E-03
            2547               1     62.7234E-03     61.0457E-03     24.9736E-03     25.1291E-03
            2548               1     62.1983E-03     60.4764E-03     23.6606E-03     23.6962E-03
            2549               1     61.6098E-03     59.9691E-03     22.3819E-03     22.4503E-03
            2550               1     60.9868E-03     59.3335E-03     21.2901E-03     21.3141E-03
            2551               1     60.4769E-03     58.8562E-03     20.3137E-03     20.3425E-03
            2552               1     59.6412E-03     58.0125E-03     19.2046E-03     19.2228E-03
            2553               1     59.0056E-03     57.3820E-03     18.2776E-03     18.2889E-03
            2554               1     57.6916E-03     56.0599E-03     16.8829E-03     16.8995E-03
            2555               1     56.5647E-03     54.9004E-03     15.7390E-03     15.7328E-03
            2556               1     54.3542E-03     52.6715E-03     13.7775E-03     13.7909E-03
            2557               1     52.1225E-03     50.2934E-03     12.1219E-03     12.0629E-03
            2558               1     48.4038E-03     46.4666E-03     9.35604E-03     9.33160E-03
            2559               1     44.1232E-03     41.6728E-03     6.92209E-03     6.67291E-03
            2560               1     37.8626E-03     34.8022E-03     3.25535E-03     2.99254E-03
            2561               1     30.0003E-03     25.3700E-03     74.6428E-06    -987.432E-06
            2562               1     17.0720E-03     13.6057E-03    -3.95898E-03    -7.14692E-03
            2563               1     62.8048E-03     62.7363E-03     28.7575E-03     29.4207E-03
            2564               1     62.8258E-03     62.1702E-03     26.9109E-03     27.2077E-03
            2565               1     62.8056E-03     62.1027E-03     25.0935E-03     25.5333E-03
            2566               1     62.5750E-03     61.6127E-03     23.9228E-03     24.0666E-03
            2567               1     62.2343E-03     61.2784E-03     22.6627E-03     22.8874E-03
            2568               1     61.7902E-03     60.7673E-03     21.7654E-03     21.8524E-03
            2569               1     61.5260E-03     60.4859E-03     20.8871E-03     20.9888E-03
            2570               1     60.9642E-03     59.9223E-03     20.0488E-03     20.1069E-03
            2571               1     60.7705E-03     59.7000E-03     19.3310E-03     19.3757E-03
            2572               1     59.9951E-03     58.9399E-03     18.3475E-03     18.3904E-03
            2573               1     59.6909E-03     58.5822E-03     17.5847E-03     17.5952E-03
            2574               1     58.4388E-03     57.3583E-03     16.2231E-03     16.2563E-03
            2575               1     57.6112E-03     56.3918E-03     15.2018E-03     15.1430E-03
            2576               1     55.4007E-03     54.2228E-03     13.2080E-03     13.1954E-03
            2577               1     53.1770E-03     51.6695E-03     11.6884E-03     11.4117E-03
            2578               1     49.0203E-03     47.5443E-03     8.92341E-03     8.65020E-03
            2579               1     43.6043E-03     41.6738E-03     6.64266E-03     5.72555E-03
            2580               1     34.1594E-03     32.6024E-03     3.37710E-03     1.64552E-03
            2581               1     19.2568E-03     25.1954E-03    -4.55463E-03    -5.38136E-03
            2582               1     61.8446E-03     62.3085E-03     27.5605E-03     27.7091E-03
            2583               1     62.2438E-03     62.5691E-03     25.3322E-03     25.7411E-03
            2584               1     61.9786E-03     61.9446E-03     23.7844E-03     23.9368E-03
            2585               1     62.0015E-03     61.8321E-03     22.4722E-03     22.7958E-03
            2586               1     61.7348E-03     61.4554E-03     21.7186E-03     21.8402E-03
            2587               1     61.7533E-03     61.3491E-03     20.9576E-03     21.1273E-03
            2588               1     61.4276E-03     61.0298E-03     20.4081E-03     20.4981E-03
            2589               1     61.5741E-03     61.0831E-03     19.9118E-03     19.9906E-03
            2590               1     61.1824E-03     60.7239E-03     19.3291E-03     19.3919E-03
            2591               1     61.4148E-03     60.8789E-03     18.9004E-03     18.9333E-03
            2592               1     60.8052E-03     60.3205E-03     18.1000E-03     18.1450E-03
            2593               1     60.9346E-03     60.3308E-03     17.5818E-03     17.5635E-03
            2594               1     59.7403E-03     59.2461E-03     16.3010E-03     16.3190E-03
            2595               1     59.1397E-03     58.4200E-03     15.4560E-03     15.3087E-03
            2596               1     56.5497E-03     56.0774E-03     13.3615E-03     13.2553E-03
            2597               1     53.5328E-03     52.8925E-03     11.6838E-03     11.2609E-03
            2598               1     47.5722E-03     47.5010E-03     8.51375E-03     7.91243E-03
            2599               1     37.5852E-03     40.1763E-03     3.65401E-03     3.61235E-03
            2600               1     31.5590E-03     31.0629E-03    -4.05698E-03    -3.09244E-03
            2601               1     63.6838E-03     64.3009E-03     27.4837E-03     27.1827E-03
            2602               1     61.7551E-03     62.3739E-03     24.1991E-03     24.1045E-03
            2603               1     61.4470E-03     61.9710E-03     22.3860E-03     22.5741E-03
            2604               1     61.0078E-03     61.5113E-03     21.3887E-03     21.4587E-03
            2605               1     61.2135E-03     61.4417E-03     20.6361E-03     20.7970E-03
            2606               1     61.0052E-03     61.3116E-03     20.2733E-03     20.3695E-03
            2607               1     61.4330E-03     61.5275E-03     19.9720E-03     20.0572E-03
            2608               1     61.3049E-03     61.4717E-03     19.7252E-03     19.7990E-03
            2609               1     61.8779E-03     61.9147E-03     19.5725E-03     19.6153E-03
            2610               1     61.7051E-03     61.8054E-03     19.2481E-03     19.2980E-03
            2611               1     62.3839E-03     62.3749E-03     19.1077E-03     19.1221E-03
            2612               1     61.9125E-03     62.0091E-03     18.4979E-03     18.5283E-03
            2613               1     62.4391E-03     62.3809E-03     18.1991E-03     18.1626E-03
            2614               1     61.0532E-03     61.2442E-03     16.8660E-03     16.8644E-03
            2615               1     60.2461E-03     60.3248E-03     15.8856E-03     15.7718E-03
            2616               1     56.6381E-03     57.1953E-03     13.1417E-03     13.0514E-03
            2617               1     51.3457E-03     52.8704E-03     9.90030E-03     10.0250E-03
            2618               1     45.1552E-03     46.0400E-03     4.20167E-03     4.69290E-03
            2619               1     38.0296E-03     40.7179E-03    -2.96929E-03    -3.06219E-03
            2620               1     65.1063E-03     65.2627E-03     26.3755E-03     25.7288E-03
            2621               1     61.9750E-03     62.8882E-03     23.0992E-03     22.9509E-03
            2622               1     60.5585E-03     61.6021E-03     21.3034E-03     21.1605E-03
            2623               1     60.3534E-03     61.1109E-03     20.2328E-03     20.2625E-03
            2624               1     59.9613E-03     60.9706E-03     19.8321E-03     19.8809E-03
            2625               1     60.5482E-03     61.1938E-03     19.6398E-03     19.6702E-03
            2626               1     60.5388E-03     61.3534E-03     19.6057E-03     19.6722E-03
            2627               1     61.3372E-03     61.9305E-03     19.6671E-03     19.6882E-03
            2628               1     61.4450E-03     62.1343E-03     19.6887E-03     19.7363E-03
            2629               1     62.3872E-03     62.9489E-03     19.8122E-03     19.8315E-03
            2630               1     62.4106E-03     63.0581E-03     19.7354E-03     19.7646E-03
            2631               1     63.4882E-03     64.0248E-03     19.8202E-03     19.8370E-03
            2632               1     63.0345E-03     63.7423E-03     19.3222E-03     19.3456E-03
            2633               1     63.8613E-03     64.4676E-03     19.0436E-03     19.0694E-03
            2634               1     61.9895E-03     62.9707E-03     17.2218E-03     17.3034E-03
            2635               1     60.5218E-03     61.7769E-03     15.3790E-03     15.5628E-03
            2636               1     56.3271E-03     57.7098E-03     10.7709E-03     11.2245E-03
            2637               1     50.8227E-03     53.0529E-03     5.51200E-03     5.80585E-03
            2638               1     48.0166E-03     49.2095E-03    -2.56078E-03    -1.52469E-03
            2639               1     65.0438E-03     66.1792E-03     24.4580E-03     24.2127E-03
            2640               1     61.8614E-03     62.9655E-03     21.8595E-03     21.4394E-03
            2641               1     60.0079E-03     61.0852E-03     20.0255E-03     19.8496E-03
            2642               1     58.8799E-03     60.5008E-03     19.3601E-03     19.3274E-03
            2643               1     59.3300E-03     60.4286E-03     19.1523E-03     19.0471E-03
            2644               1     59.2044E-03     60.6591E-03     19.1627E-03     19.2035E-03
            2645               1     60.1316E-03     61.2381E-03     19.3755E-03     19.3270E-03
            2646               1     60.3716E-03     61.6547E-03     19.5885E-03     19.6252E-03
            2647               1     61.4232E-03     62.5289E-03     19.8860E-03     19.8772E-03
            2648               1     61.7458E-03     62.9405E-03     20.1441E-03     20.1651E-03
            2649               1     62.9555E-03     64.0547E-03     20.4457E-03     20.4685E-03
            2650               1     63.1287E-03     64.3195E-03     20.5834E-03     20.5957E-03
            2651               1     64.5573E-03     65.6845E-03     20.7495E-03     20.8192E-03
            2652               1     64.0634E-03     65.3910E-03     20.2035E-03     20.2609E-03
            2653               1     65.3625E-03     66.7109E-03     19.6324E-03     19.8294E-03
            2654               1     63.1515E-03     64.8322E-03     16.5700E-03     16.9320E-03
            2655               1     61.8049E-03     63.7335E-03     13.3568E-03     13.7327E-03
            2656               1     58.7473E-03     60.4774E-03     6.28829E-03     7.16131E-03
            2657               1     55.2302E-03     57.4882E-03    -954.926E-06    -563.884E-06
            2658               1     65.5392E-03     66.3756E-03     22.7009E-03     22.1369E-03
            2659               1     60.9329E-03     62.2510E-03     19.8075E-03     19.6273E-03
            2660               1     58.4238E-03     60.5427E-03     18.9907E-03     18.9294E-03
            2661               1     58.3140E-03     59.7462E-03     18.6964E-03     18.4272E-03
            2662               1     57.7445E-03     59.7876E-03     18.6201E-03     18.6359E-03
            2663               1     58.6565E-03     60.2068E-03     18.9309E-03     18.7694E-03
            2664               1     58.8602E-03     60.7207E-03     19.1838E-03     19.2031E-03
            2665               1     59.9397E-03     61.5542E-03     19.5911E-03     19.5234E-03
            2666               1     60.4005E-03     62.1481E-03     19.9932E-03     20.0036E-03
            2667               1     61.5545E-03     63.1941E-03     20.3958E-03     20.3914E-03
            2668               1     62.0617E-03     63.7586E-03     20.8617E-03     20.8612E-03
            2669               1     63.4323E-03     65.0903E-03     21.2087E-03     21.2662E-03
            2670               1     63.7917E-03     65.5113E-03     21.5267E-03     21.5353E-03
            2671               1     65.6695E-03     67.3984E-03     21.5964E-03     21.7603E-03
            2672               1     65.3833E-03     67.2677E-03     20.8884E-03     21.0225E-03
            2673               1     68.3203E-03     70.1396E-03     19.9273E-03     20.2401E-03
            2674               1     66.5331E-03     68.6813E-03     14.7256E-03     15.3963E-03
            2675               1     66.2546E-03     68.4906E-03     9.63187E-03     10.0612E-03
            2676               1     65.8444E-03     67.3046E-03    -50.2631E-06     916.431E-06
            2677               1     63.5240E-03     65.2564E-03     19.1037E-03     19.2369E-03
            2678               1     58.7465E-03     61.5323E-03     18.4445E-03     18.6280E-03
            2679               1     57.9843E-03     59.6840E-03     18.3080E-03     17.9294E-03
            2680               1     56.6001E-03     59.1903E-03     18.1143E-03     18.1722E-03
            2681               1     57.3316E-03     59.2454E-03     18.5310E-03     18.2449E-03
            2682               1     57.2959E-03     59.6912E-03     18.6995E-03     18.7112E-03
            2683               1     58.3196E-03     60.3990E-03     19.1736E-03     19.0315E-03
            2684               1     58.7800E-03     61.0723E-03     19.5714E-03     19.5727E-03
            2685               1     59.8275E-03     61.9892E-03     20.0132E-03     19.9666E-03
            2686               1     60.4648E-03     62.6969E-03     20.5653E-03     20.5578E-03
            2687               1     61.5809E-03     63.7748E-03     20.9471E-03     20.9689E-03
            2688               1     62.3050E-03     64.5018E-03     21.5963E-03     21.5803E-03
            2689               1     63.7645E-03     65.9894E-03     21.8322E-03     21.9407E-03
            2690               1     64.5666E-03     66.7742E-03     22.3720E-03     22.3738E-03
            2691               1     67.2664E-03     69.5133E-03     22.2187E-03     22.4541E-03
            2692               1     67.9832E-03     70.2947E-03     21.6410E-03     21.7672E-03
            2693               1     75.1915E-03     77.1501E-03     20.4830E-03     20.8042E-03
            2694               1     75.0382E-03     77.1517E-03     11.4170E-03     12.3123E-03
            2695               1     74.8056E-03     77.5568E-03     2.93666E-03     3.40905E-03
            2696               1     59.7953E-03     63.6893E-03     17.3774E-03     18.1366E-03
            2697               1     58.6684E-03     60.7386E-03     18.0135E-03     17.6476E-03
            2698               1     56.1353E-03     59.2605E-03     17.6949E-03     17.8914E-03
            2699               1     56.5389E-03     58.7800E-03     18.2887E-03     17.9470E-03
            2700               1     56.0574E-03     58.9178E-03     18.3016E-03     18.3299E-03
            2701               1     56.8790E-03     59.3908E-03     18.8006E-03     18.6129E-03
            2702               1     57.2037E-03     60.0098E-03     19.0997E-03     19.0983E-03
            2703               1     58.1070E-03     60.7791E-03     19.5438E-03     19.4660E-03
            2704               1     58.7523E-03     61.5323E-03     20.0489E-03     20.0416E-03
            2705               1     59.6448E-03     62.3799E-03     20.4236E-03     20.4114E-03
            2706               1     60.4644E-03     63.2075E-03     21.0906E-03     21.0740E-03
            2707               1     61.4356E-03     64.1906E-03     21.3287E-03     21.3755E-03
            2708               1     62.5260E-03     65.2279E-03     22.1425E-03     22.1148E-03
            2709               1     64.0341E-03     66.8022E-03     22.1013E-03     22.2346E-03
            2710               1     65.8524E-03     68.5251E-03     23.0570E-03     23.0162E-03
            2711               1     69.7716E-03     72.4817E-03     22.5269E-03     22.7618E-03
            2712               1     73.2655E-03     75.9001E-03     23.2557E-03     23.1782E-03
            2713               1     89.8026E-03     91.7974E-03     21.9676E-03     22.1306E-03
            2714               1     91.8834E-03     92.8332E-03     4.75533E-03     5.66527E-03
            2715               1     60.9820E-03     63.5730E-03     18.2419E-03     17.9621E-03
            2716               1     56.9664E-03     60.4837E-03     17.5470E-03     17.8457E-03
            2717               1     56.6522E-03     59.2282E-03     18.2751E-03     18.0499E-03
            2718               1     55.5156E-03     58.7359E-03     18.0806E-03     18.1390E-03
            2719               1     55.8590E-03     58.8126E-03     18.5129E-03     18.3905E-03
            2720               1     55.9031E-03     59.1807E-03     18.6761E-03     18.6832E-03
            2721               1     56.5510E-03     59.7467E-03     19.0744E-03     19.0201E-03
            2722               1     57.1172E-03     60.4419E-03     19.4895E-03     19.4881E-03
            2723               1     57.8341E-03     61.1261E-03     19.8545E-03     19.8372E-03
            2724               1     58.6569E-03     61.9786E-03     20.4445E-03     20.4384E-03
            2725               1     59.3512E-03     62.6625E-03     20.6943E-03     20.7017E-03
            2726               1     60.4351E-03     63.7272E-03     21.4234E-03     21.4087E-03
            2727               1     61.2036E-03     64.5103E-03     21.4057E-03     21.4464E-03
            2728               1     62.9371E-03     66.1914E-03     22.3341E-03     22.2991E-03
            2729               1     64.3679E-03     67.6790E-03     21.7986E-03     21.9000E-03
            2730               1     68.1600E-03     71.3841E-03     23.3926E-03     23.2816E-03
            2731               1     72.8379E-03     76.2404E-03     21.8650E-03     22.0689E-03
            2732               1     83.9375E-03     87.2324E-03     26.6671E-03     26.2325E-03
            2733               1     116.772E-03     121.020E-03     20.6082E-03     20.6697E-03
            2734               1     93.1756E-03     90.8268E-03     37.4891E-03     37.8929E-03
            2735               1     93.3779E-03     91.2376E-03     34.2376E-03     34.5105E-03
            2736               1     93.6367E-03     91.8780E-03     31.7657E-03     32.0150E-03
            2737               1     93.4945E-03     91.9479E-03     29.2332E-03     29.3875E-03
            2738               1     93.5225E-03     92.2575E-03     27.2335E-03     27.3756E-03
            2739               1     93.2159E-03     92.0971E-03     25.1283E-03     25.2169E-03
            2740               1     93.1545E-03     92.2121E-03     23.4741E-03     23.5496E-03
            2741               1     92.6271E-03     91.7721E-03     21.4884E-03     21.5402E-03
            2742               1     92.3970E-03     91.6477E-03     19.9495E-03     19.9889E-03
            2743               1     91.4796E-03     90.7731E-03     17.7566E-03     17.7857E-03
            2744               1     90.8557E-03     90.2062E-03     16.0605E-03     16.0767E-03
            2745               1     89.2946E-03     88.6351E-03     13.3256E-03     13.3303E-03
            2746               1     87.9219E-03     87.2465E-03     11.1753E-03     11.1544E-03
            2747               1     85.4158E-03     84.5997E-03     7.57430E-03     7.51635E-03
            2748               1     82.8871E-03     81.8522E-03     4.68132E-03     4.55458E-03
            2749               1     79.1758E-03     77.6056E-03    -117.719E-06    -399.219E-06
            2750               1     75.4077E-03     72.9540E-03    -3.90180E-03    -4.41804E-03
            2751               1     70.6585E-03     66.6327E-03    -10.6223E-03    -11.9021E-03
            2752               1     68.4880E-03     61.0351E-03    -13.4641E-03    -17.9099E-03
            2753               1     92.5060E-03     92.3345E-03     34.7856E-03     35.2337E-03
            2754               1     93.1952E-03     93.1110E-03     32.0371E-03     32.7580E-03
            2755               1     94.0453E-03     93.6183E-03     29.7147E-03     30.1257E-03
            2756               1     94.3659E-03     94.0267E-03     27.7359E-03     28.1967E-03
            2757               1     94.4771E-03     94.0853E-03     25.8618E-03     26.1362E-03
            2758               1     94.6813E-03     94.3419E-03     24.3280E-03     24.5874E-03
            2759               1     94.4836E-03     94.1781E-03     22.6577E-03     22.8290E-03
            2760               1     94.6814E-03     94.4032E-03     21.3520E-03     21.4902E-03
            2761               1     94.2416E-03     94.0011E-03     19.6212E-03     19.7213E-03
            2762               1     94.3526E-03     94.1214E-03     18.3103E-03     18.3809E-03
            2763               1     93.5477E-03     93.3278E-03     16.2420E-03     16.2821E-03
            2764               1     93.3247E-03     93.0736E-03     14.6835E-03     14.6870E-03
            2765               1     91.8911E-03     91.5962E-03     11.9987E-03     11.9376E-03
            2766               1     90.8922E-03     90.4774E-03     9.94111E-03     9.78688E-03
            2767               1     88.3711E-03     87.8004E-03     6.44281E-03     6.09873E-03
            2768               1     86.0649E-03     85.2752E-03     3.69296E-03     3.06304E-03
            2769               1     81.3211E-03     80.4444E-03    -565.474E-06    -1.75951E-03
            2770               1     77.5327E-03     77.1563E-03    -3.82159E-03    -6.44353E-03
            2771               1     61.6048E-03     70.2020E-03    -8.34300E-03    -9.84892E-03
            2772               1     91.7915E-03     93.2682E-03     32.6185E-03     33.0245E-03
            2773               1     93.5738E-03     94.5126E-03     30.0517E-03     30.3244E-03
            2774               1     94.0226E-03     94.8924E-03     27.6897E-03     28.2692E-03
            2775               1     94.7389E-03     95.3340E-03     25.9959E-03     26.3366E-03
            2776               1     95.1696E-03     95.6404E-03     24.5143E-03     24.9138E-03
            2777               1     95.3532E-03     95.7743E-03     23.1942E-03     23.4523E-03
            2778               1     95.8620E-03     96.1794E-03     22.1285E-03     22.3583E-03
            2779               1     95.8184E-03     96.1533E-03     20.8835E-03     21.0501E-03
            2780               1     96.4236E-03     96.6929E-03     19.9562E-03     20.0815E-03
            2781               1     96.1738E-03     96.4627E-03     18.5399E-03     18.6272E-03
            2782               1     96.7581E-03     96.9942E-03     17.5292E-03     17.5789E-03
            2783               1     96.1252E-03     96.3727E-03     15.6808E-03     15.6747E-03
            2784               1     96.3363E-03     96.5133E-03     14.3555E-03     14.2785E-03
            2785               1     94.9131E-03     95.1154E-03     11.8207E-03     11.6277E-03
            2786               1     93.9916E-03     94.1636E-03     9.89978E-03     9.49868E-03
            2787               1     90.8098E-03     91.2454E-03     6.62589E-03     6.03499E-03
            2788               1     87.4918E-03     88.3830E-03     3.79470E-03     2.58030E-03
            2789               1     79.1176E-03     83.3278E-03    -113.813E-06    -469.747E-06
            2790               1     71.5592E-03     72.3064E-03    -6.72885E-03    -5.80387E-03
            2791               1     93.9753E-03     95.4395E-03     31.6792E-03     31.1621E-03
            2792               1     93.3728E-03     95.2166E-03     27.8946E-03     28.1664E-03
            2793               1     94.3152E-03     95.8746E-03     25.9937E-03     26.1021E-03
            2794               1     94.6988E-03     96.0550E-03     24.2175E-03     24.5996E-03
            2795               1     95.2058E-03     96.4695E-03     23.1475E-03     23.3766E-03
            2796               1     95.8937E-03     96.8933E-03     22.2160E-03     22.4753E-03
            2797               1     96.1731E-03     97.1852E-03     21.4173E-03     21.6086E-03
            2798               1     97.0873E-03     97.9183E-03     20.8212E-03     20.9731E-03
            2799               1     97.2530E-03     98.1094E-03     20.0050E-03     20.1255E-03
            2800               1     98.3399E-03     99.0907E-03     19.4687E-03     19.5517E-03
            2801               1     98.2996E-03     99.0826E-03     18.3995E-03     18.4452E-03
            2802               1     99.3872E-03     100.097E-03     17.7151E-03     17.7203E-03
            2803               1     98.8316E-03     99.6368E-03     16.0774E-03     16.0244E-03
            2804               1     99.2993E-03     100.071E-03     14.9392E-03     14.7733E-03
            2805               1     97.5151E-03     98.6387E-03     12.3819E-03     12.1932E-03
            2806               1     95.8577E-03     97.1452E-03     10.2476E-03     9.74945E-03
            2807               1     91.1240E-03     93.9514E-03     6.51707E-03     6.50705E-03
            2808               1     85.2089E-03     87.1614E-03     1.95390E-03     2.10354E-03
            2809               1     77.9643E-03     81.7897E-03    -4.56316E-03    -5.00592E-03
            2810               1     94.8358E-03     96.6957E-03     29.2736E-03     28.9353E-03
            2811               1     94.3555E-03     96.3612E-03     26.4432E-03     26.0794E-03
            2812               1     93.9719E-03     95.9901E-03     23.8710E-03     24.0074E-03
            2813               1     94.3850E-03     96.4378E-03     22.7708E-03     22.8087E-03
            2814               1     95.0030E-03     96.6569E-03     21.7499E-03     21.9172E-03
            2815               1     95.4404E-03     97.1808E-03     21.2788E-03     21.4194E-03
            2816               1     96.5106E-03     97.9194E-03     20.9157E-03     21.0293E-03
            2817               1     96.9655E-03     98.4346E-03     20.5998E-03     20.7168E-03
            2818               1     98.3177E-03     99.5945E-03     20.4425E-03     20.5186E-03
            2819               1     98.7107E-03     100.031E-03     20.0494E-03     20.1170E-03
            2820               1     100.293E-03     101.508E-03     19.8815E-03     19.9292E-03
            2821               1     100.407E-03     101.716E-03     19.1355E-03     19.1550E-03
            2822               1     101.974E-03     103.220E-03     18.7148E-03     18.7084E-03
            2823               1     101.302E-03     102.864E-03     17.0796E-03     17.0821E-03
            2824               1     101.723E-03     103.269E-03     15.8324E-03     15.7255E-03
            2825               1     99.2161E-03     101.697E-03     12.5774E-03     12.7440E-03
            2826               1     96.1463E-03     98.3422E-03     9.28047E-03     9.38701E-03
            2827               1     91.1126E-03     94.4511E-03     3.62030E-03     3.84722E-03
            2828               1     85.7578E-03     88.8735E-03    -3.32676E-03    -2.49435E-03
            2829               1     96.3410E-03     98.0056E-03     27.2762E-03     26.6353E-03
            2830               1     94.1842E-03     96.4712E-03     23.7908E-03     23.6714E-03
            2831               1     93.6701E-03     96.2110E-03     22.3450E-03     22.0807E-03
            2832               1     93.7306E-03     95.8611E-03     20.9546E-03     20.9238E-03
            2833               1     93.9620E-03     96.3831E-03     20.6466E-03     20.6546E-03
            2834               1     95.0130E-03     96.9417E-03     20.3885E-03     20.3777E-03
            2835               1     95.5866E-03     97.6766E-03     20.4378E-03     20.5020E-03
            2836               1     97.0400E-03     98.8259E-03     20.5575E-03     20.5679E-03
            2837               1     97.7226E-03     99.5853E-03     20.6847E-03     20.7375E-03
            2838               1     99.4827E-03     101.188E-03     20.8938E-03     20.9274E-03
            2839               1     100.083E-03     101.863E-03     20.9032E-03     20.9388E-03
            2840               1     102.165E-03     103.859E-03     21.0321E-03     21.0873E-03
            2841               1     102.359E-03     104.266E-03     20.5034E-03     20.5618E-03
            2842               1     104.480E-03     106.304E-03     20.1780E-03     20.2644E-03
            2843               1     103.561E-03     106.020E-03     18.0374E-03     18.2647E-03
            2844               1     103.885E-03     106.110E-03     16.1293E-03     16.3495E-03
            2845               1     101.058E-03     104.242E-03     11.1133E-03     11.6004E-03
            2846               1     97.4549E-03     100.455E-03     5.94512E-03     6.48215E-03
            2847               1     94.2202E-03     96.9986E-03    -1.51874E-03    -1.07182E-03
            2848               1     95.9332E-03     98.4864E-03     23.7477E-03     23.7209E-03
            2849               1     93.9865E-03     96.6365E-03     21.8314E-03     21.3981E-03
            2850               1     92.8021E-03     95.1434E-03     19.9374E-03     19.7200E-03
            2851               1     92.2271E-03     95.2013E-03     19.6641E-03     19.5412E-03
            2852               1     93.0418E-03     95.3469E-03     19.4357E-03     19.2268E-03
            2853               1     93.4699E-03     96.1354E-03     19.7062E-03     19.6870E-03
            2854               1     94.9110E-03     97.1442E-03     20.0236E-03     19.9051E-03
            2855               1     95.7317E-03     98.1258E-03     20.4967E-03     20.5038E-03
            2856               1     97.4825E-03     99.6559E-03     20.9622E-03     20.9276E-03
            2857               1     98.3964E-03     100.649E-03     21.4958E-03     21.5103E-03
            2858               1     100.512E-03     102.657E-03     21.9723E-03     22.0114E-03
            2859               1     101.311E-03     103.571E-03     22.3539E-03     22.3965E-03
            2860               1     103.982E-03     106.160E-03     22.6643E-03     22.7995E-03
            2861               1     104.280E-03     106.807E-03     22.1976E-03     22.3654E-03
            2862               1     107.468E-03     109.800E-03     21.7503E-03     22.0689E-03
            2863               1     106.522E-03     109.642E-03     18.3300E-03     18.8052E-03
            2864               1     107.276E-03     110.043E-03     15.1633E-03     15.6948E-03
            2865               1     105.133E-03     108.376E-03     7.74814E-03     8.50430E-03
            2866               1     101.331E-03     105.087E-03     548.293E-06     1.10677E-03
            2867               1     96.1283E-03     98.5079E-03     21.1097E-03     20.6808E-03
            2868               1     92.7577E-03     95.1918E-03     18.4490E-03     18.2923E-03
            2869               1     90.6981E-03     94.1073E-03     18.3013E-03     18.1889E-03
            2870               1     91.0646E-03     93.5738E-03     18.1803E-03     17.7759E-03
            2871               1     91.0042E-03     94.1486E-03     18.5761E-03     18.4965E-03
            2872               1     92.3403E-03     94.9166E-03     19.0707E-03     18.7846E-03
            2873               1     93.1294E-03     96.0064E-03     19.7357E-03     19.6859E-03
            2874               1     94.7884E-03     97.3847E-03     20.3772E-03     20.2372E-03
            2875               1     95.8647E-03     98.5881E-03     21.2056E-03     21.1816E-03
            2876               1     97.7928E-03     100.388E-03     21.8744E-03     21.8497E-03
            2877               1     98.9417E-03     101.607E-03     22.7928E-03     22.7978E-03
            2878               1     101.382E-03     103.977E-03     23.4197E-03     23.5120E-03
            2879               1     102.473E-03     105.205E-03     24.1777E-03     24.2566E-03
            2880               1     106.031E-03     108.650E-03     24.5482E-03     24.8290E-03
            2881               1     106.736E-03     109.743E-03     24.1081E-03     24.3857E-03
            2882               1     112.451E-03     115.135E-03     23.4685E-03     24.0530E-03
            2883               1     112.045E-03     115.565E-03     17.6768E-03     18.4207E-03
            2884               1     113.266E-03     116.437E-03     12.5101E-03     13.0945E-03
            2885               1     111.975E-03     114.810E-03     2.37642E-03     3.43760E-03
            2886               1     94.2065E-03     96.7984E-03     16.0928E-03     16.3042E-03
            2887               1     89.5877E-03     93.4674E-03     16.3309E-03     16.5411E-03
            2888               1     89.4452E-03     92.0283E-03     16.6547E-03     16.1222E-03
            2889               1     88.5455E-03     92.0549E-03     17.1379E-03     17.1099E-03
            2890               1     89.7015E-03     92.4924E-03     17.8923E-03     17.4486E-03
            2891               1     90.2790E-03     93.5478E-03     18.6316E-03     18.5523E-03
            2892               1     91.8025E-03     94.7532E-03     19.4163E-03     19.1665E-03
            2893               1     92.9144E-03     96.0809E-03     20.3656E-03     20.3076E-03
            2894               1     94.6139E-03     97.6466E-03     21.1373E-03     21.0370E-03
            2895               1     95.9250E-03     99.0407E-03     22.2777E-03     22.2488E-03
            2896               1     97.9143E-03     100.969E-03     23.0216E-03     23.0399E-03
            2897               1     99.3769E-03     102.470E-03     24.3284E-03     24.3385E-03
            2898               1     102.141E-03     105.179E-03     24.9756E-03     25.1462E-03
            2899               1     103.851E-03     106.973E-03     26.2491E-03     26.3448E-03
            2900               1     108.813E-03     111.792E-03     26.5846E-03     27.0208E-03
            2901               1     110.723E-03     113.982E-03     26.6469E-03     26.9597E-03
            2902               1     122.082E-03     124.880E-03     26.0050E-03     26.8416E-03
            2903               1     122.617E-03     126.389E-03     15.5073E-03     16.5853E-03
            2904               1     121.596E-03     125.297E-03     6.61784E-03     6.90450E-03
            2905               1     89.0141E-03     93.4943E-03     13.4586E-03     14.3294E-03
            2906               1     88.4673E-03     91.0783E-03     14.9510E-03     14.4023E-03
            2907               1     86.4512E-03     90.1611E-03     15.4860E-03     15.6397E-03
            2908               1     87.3145E-03     90.1925E-03     16.6316E-03     16.1305E-03
            2909               1     87.5288E-03     91.0488E-03     17.3719E-03     17.3219E-03
            2910               1     88.8378E-03     92.0625E-03     18.2843E-03     17.9846E-03
            2911               1     89.8733E-03     93.4199E-03     19.2492E-03     19.1850E-03
            2912               1     91.3497E-03     94.7947E-03     20.0753E-03     19.9321E-03
            2913               1     92.7058E-03     96.2856E-03     21.2558E-03     21.2138E-03
            2914               1     94.3115E-03     97.8487E-03     22.0348E-03     21.9962E-03
            2915               1     95.8872E-03     99.4566E-03     23.4549E-03     23.4340E-03
            2916               1     97.8310E-03     101.367E-03     24.1537E-03     24.2137E-03
            2917               1     99.8273E-03     103.339E-03     25.8802E-03     25.8860E-03
            2918               1     102.863E-03     106.314E-03     26.3924E-03     26.6113E-03
            2919               1     105.898E-03     109.296E-03     28.5418E-03     28.5955E-03
            2920               1     112.626E-03     115.851E-03     28.6730E-03     29.1863E-03
            2921               1     117.691E-03     120.926E-03     30.8992E-03     31.1130E-03
            2922               1     141.009E-03     143.564E-03     30.2417E-03     31.3377E-03
            2923               1     140.221E-03     144.000E-03     9.47522E-03     11.0296E-03
            2924               1     88.5619E-03     91.0398E-03     13.5628E-03     13.1485E-03
            2925               1     85.3677E-03     88.9036E-03     13.9213E-03     14.2299E-03
            2926               1     85.5472E-03     88.3159E-03     15.4305E-03     15.1169E-03
            2927               1     85.2754E-03     88.8306E-03     16.1280E-03     16.1587E-03
            2928               1     86.1600E-03     89.5674E-03     17.0817E-03     16.9019E-03
            2929               1     87.0021E-03     90.8422E-03     18.0233E-03     18.0008E-03
            2930               1     88.2041E-03     92.0377E-03     18.8484E-03     18.7588E-03
            2931               1     89.5176E-03     93.5505E-03     20.0018E-03     19.9805E-03
            2932               1     90.8433E-03     94.8780E-03     20.7867E-03     20.7514E-03
            2933               1     92.4235E-03     96.5254E-03     22.1566E-03     22.1416E-03
            2934               1     93.8560E-03     97.9397E-03     22.8706E-03     22.8746E-03
            2935               1     95.8158E-03     99.8890E-03     24.5176E-03     24.5046E-03
            2936               1     97.5989E-03     101.621E-03     25.0521E-03     25.1099E-03
            2937               1     100.517E-03     104.455E-03     27.1938E-03     27.1719E-03
            2938               1     103.517E-03     107.350E-03     27.3325E-03     27.5036E-03
            2939               1     109.156E-03     112.776E-03     30.7855E-03     30.7175E-03
            2940               1     116.620E-03     120.057E-03     29.9808E-03     30.4206E-03
            2941               1     131.372E-03     134.245E-03     38.4174E-03     38.2464E-03
            2942               1     175.079E-03     177.238E-03     31.4719E-03     33.0404E-03
            2943               1     123.323E-03     120.723E-03     42.9898E-03     43.5665E-03
            2944               1     124.113E-03     121.931E-03     39.1478E-03     39.4020E-03
            2945               1     124.957E-03     123.402E-03     35.9509E-03     36.3207E-03
            2946               1     125.418E-03     124.272E-03     32.8369E-03     33.0164E-03
            2947               1     126.125E-03     125.414E-03     30.2953E-03     30.5078E-03
            2948               1     126.410E-03     125.982E-03     27.5933E-03     27.7070E-03
            2949               1     127.028E-03     126.872E-03     25.4604E-03     25.5735E-03
            2950               1     127.055E-03     127.071E-03     22.8155E-03     22.8850E-03
            2951               1     127.480E-03     127.659E-03     20.7997E-03     20.8574E-03
            2952               1     127.078E-03     127.355E-03     17.8212E-03     17.8623E-03
            2953               1     127.097E-03     127.459E-03     15.6040E-03     15.6251E-03
            2954               1     126.050E-03     126.437E-03     11.8737E-03     11.8863E-03
            2955               1     125.377E-03     125.741E-03     9.12164E-03     9.08586E-03
            2956               1     123.500E-03     123.734E-03     4.19325E-03     4.13664E-03
            2957               1     121.958E-03     121.895E-03     604.334E-06     417.203E-06
            2958               1     119.334E-03     118.690E-03    -6.12389E-03    -6.42466E-03
            2959               1     117.669E-03     115.916E-03    -10.6115E-03    -11.3142E-03
            2960               1     115.797E-03     112.203E-03    -20.9108E-03    -22.3278E-03
            2961               1     124.211E-03     115.633E-03    -22.9921E-03    -28.4681E-03
            2962               1     123.310E-03     123.588E-03     39.7848E-03     40.1188E-03
            2963               1     124.688E-03     125.133E-03     36.2677E-03     37.2555E-03
            2964               1     126.037E-03     126.200E-03     33.4463E-03     33.9081E-03
            2965               1     127.065E-03     127.384E-03     30.8927E-03     31.5619E-03
            2966               1     127.755E-03     128.088E-03     28.5215E-03     28.8684E-03
            2967               1     128.698E-03     129.133E-03     26.5215E-03     26.9064E-03
            2968               1     129.076E-03     129.600E-03     24.3103E-03     24.5371E-03
            2969               1     130.029E-03     130.614E-03     22.5752E-03     22.7807E-03
            2970               1     130.139E-03     130.802E-03     20.2125E-03     20.3494E-03
            2971               1     131.035E-03     131.722E-03     18.4577E-03     18.5586E-03
            2972               1     130.758E-03     131.491E-03     15.6040E-03     15.6659E-03
            2973               1     131.400E-03     132.089E-03     13.5466E-03     13.5446E-03
            2974               1     130.511E-03     131.192E-03     9.84596E-03     9.78538E-03
            2975               1     130.630E-03     131.130E-03     7.20510E-03     6.97940E-03
            2976               1     128.758E-03     129.154E-03     2.38551E-03     1.98933E-03
            2977               1     128.468E-03     128.518E-03    -1.03249E-03    -1.88239E-03
            2978               1     124.586E-03     124.675E-03    -6.83236E-03    -8.24262E-03
            2979               1     126.848E-03     127.316E-03    -10.7409E-03    -14.0210E-03
            2980               1     108.478E-03     119.282E-03    -11.3410E-03    -13.4602E-03
            2981               1     123.211E-03     125.483E-03     36.5867E-03     37.0356E-03
            2982               1     125.410E-03     127.339E-03     33.5608E-03     33.8525E-03
            2983               1     126.743E-03     128.461E-03     30.7528E-03     31.5748E-03
            2984               1     127.978E-03     129.490E-03     28.6630E-03     29.0895E-03
            2985               1     129.216E-03     130.537E-03     26.7692E-03     27.3576E-03
            2986               1     129.964E-03     131.273E-03     25.0363E-03     25.3746E-03
            2987               1     131.290E-03     132.468E-03     23.6052E-03     23.9482E-03
            2988               1     131.811E-03     133.032E-03     21.8903E-03     22.1140E-03
            2989               1     133.281E-03     134.423E-03     20.6072E-03     20.7917E-03
            2990               1     133.579E-03     134.767E-03     18.6202E-03     18.7436E-03
            2991               1     135.126E-03     136.239E-03     17.2260E-03     17.2930E-03
            2992               1     135.034E-03     136.201E-03     14.6551E-03     14.6610E-03
            2993               1     136.410E-03     137.454E-03     12.8861E-03     12.7673E-03
            2994               1     135.555E-03     136.710E-03     9.46473E-03     9.23526E-03
            2995               1     136.305E-03     137.337E-03     7.02572E-03     6.46348E-03
            2996               1     133.746E-03     135.226E-03     2.96657E-03     2.22514E-03
            2997               1     133.510E-03     135.375E-03    -384.292E-06    -1.98561E-03
            2998               1     125.421E-03     131.189E-03    -2.68886E-03    -3.36687E-03
            2999               1     116.263E-03     118.186E-03    -8.76401E-03    -7.78858E-03
            3000               1     124.976E-03     127.737E-03     34.2710E-03     33.7896E-03
            3001               1     125.724E-03     128.588E-03     30.4984E-03     30.8734E-03
            3002               1     127.246E-03     130.007E-03     28.3260E-03     28.5043E-03
            3003               1     128.578E-03     130.903E-03     26.2972E-03     26.8595E-03
            3004               1     129.632E-03     131.935E-03     24.9495E-03     25.2579E-03
            3005               1     131.196E-03     133.104E-03     23.7512E-03     24.1410E-03
            3006               1     132.038E-03     133.984E-03     22.6439E-03     22.8980E-03
            3007               1     133.855E-03     135.555E-03     21.7927E-03     22.0214E-03
            3008               1     134.584E-03     136.326E-03     20.6113E-03     20.7751E-03
            3009               1     136.670E-03     138.265E-03     19.8132E-03     19.9331E-03
            3010               1     137.187E-03     138.848E-03     18.2903E-03     18.3599E-03
            3011               1     139.452E-03     140.991E-03     17.3124E-03     17.3126E-03
            3012               1     139.470E-03     141.187E-03     15.1196E-03     15.0576E-03
            3013               1     141.410E-03     143.018E-03     13.6371E-03     13.3900E-03
            3014               1     140.263E-03     142.404E-03     10.5879E-03     10.3201E-03
            3015               1     140.498E-03     142.713E-03     8.10505E-03     7.39232E-03
            3016               1     136.419E-03     140.535E-03     4.88766E-03     4.70152E-03
            3017               1     130.684E-03     133.739E-03     463.411E-06     478.829E-06
            3018               1     122.241E-03     127.373E-03    -5.21227E-03    -5.98229E-03
            3019               1     125.782E-03     128.870E-03     30.7826E-03     30.4033E-03
            3020               1     126.491E-03     129.885E-03     27.9575E-03     27.6596E-03
            3021               1     127.296E-03     130.405E-03     25.4194E-03     25.6499E-03
            3022               1     128.336E-03     131.617E-03     24.2050E-03     24.3011E-03
            3023               1     129.918E-03     132.552E-03     23.0760E-03     23.3416E-03
            3024               1     130.923E-03     133.693E-03     22.4576E-03     22.6463E-03
            3025               1     132.920E-03     135.221E-03     21.9619E-03     22.1427E-03
            3026               1     133.946E-03     136.323E-03     21.4706E-03     21.6240E-03
            3027               1     136.293E-03     138.406E-03     21.1771E-03     21.2936E-03
            3028               1     137.260E-03     139.435E-03     20.5709E-03     20.6645E-03
            3029               1     139.993E-03     142.010E-03     20.2572E-03     20.3225E-03
            3030               1     140.692E-03     142.863E-03     19.2490E-03     19.2800E-03
            3031               1     143.646E-03     145.692E-03     18.6612E-03     18.6389E-03
            3032               1     143.627E-03     146.138E-03     16.7559E-03     16.7362E-03
            3033               1     145.606E-03     148.011E-03     15.3228E-03     15.1338E-03
            3034               1     143.827E-03     147.462E-03     12.1239E-03     12.2139E-03
            3035               1     141.472E-03     144.678E-03     8.79446E-03     8.78304E-03
            3036               1     136.384E-03     141.016E-03     3.56060E-03     3.64353E-03
            3037               1     129.338E-03     133.982E-03    -3.30172E-03    -2.50310E-03
            3038               1     127.021E-03     129.979E-03     27.5596E-03     26.9868E-03
            3039               1     126.331E-03     129.819E-03     24.3466E-03     24.2495E-03
            3040               1     126.744E-03     130.645E-03     23.0188E-03     22.7942E-03
            3041               1     127.909E-03     131.079E-03     21.7353E-03     21.7263E-03
            3042               1     128.761E-03     132.312E-03     21.4534E-03     21.4788E-03
            3043               1     130.773E-03     133.621E-03     21.2173E-03     21.2273E-03
            3044               1     131.934E-03     134.971E-03     21.2663E-03     21.3433E-03
            3045               1     134.360E-03     136.983E-03     21.3831E-03     21.4126E-03
            3046               1     135.632E-03     138.344E-03     21.5044E-03     21.5710E-03
            3047               1     138.482E-03     140.973E-03     21.7074E-03     21.7583E-03
            3048               1     139.680E-03     142.279E-03     21.7115E-03     21.7621E-03
            3049               1     143.060E-03     145.517E-03     21.8363E-03     21.9073E-03
            3050               1     143.894E-03     146.665E-03     21.3060E-03     21.3770E-03
            3051               1     147.541E-03     150.160E-03     20.9782E-03     21.0759E-03
            3052               1     147.366E-03     150.849E-03     18.8460E-03     19.0700E-03
            3053               1     148.860E-03     151.985E-03     16.9352E-03     17.1433E-03
            3054               1     146.474E-03     150.903E-03     11.9353E-03     12.3941E-03
            3055               1     142.389E-03     146.585E-03     6.77426E-03     7.24445E-03
            3056               1     138.224E-03     142.161E-03    -704.356E-06    -287.364E-06
            3057               1     126.329E-03     130.132E-03     22.9073E-03     22.9660E-03
            3058               1     125.715E-03     129.729E-03     21.3777E-03     20.9788E-03
            3059               1     125.820E-03     129.227E-03     19.7938E-03     19.5242E-03
            3060               1     125.996E-03     130.149E-03     19.7479E-03     19.6083E-03
            3061               1     127.828E-03     131.058E-03     19.7244E-03     19.4592E-03
            3062               1     128.887E-03     132.523E-03     20.1628E-03     20.1205E-03
            3063               1     131.283E-03     134.347E-03     20.6232E-03     20.4765E-03
            3064               1     132.718E-03     135.956E-03     21.2666E-03     21.2622E-03
            3065               1     135.485E-03     138.429E-03     21.8586E-03     21.8188E-03
            3066               1     137.015E-03     140.054E-03     22.5960E-03     22.6124E-03
            3067               1     140.306E-03     143.185E-03     23.2089E-03     23.2626E-03
            3068               1     141.740E-03     144.788E-03     23.8459E-03     23.9062E-03
            3069               1     145.837E-03     148.746E-03     24.3184E-03     24.4978E-03
            3070               1     146.836E-03     150.233E-03     24.1244E-03     24.3332E-03
            3071               1     151.636E-03     154.769E-03     23.8587E-03     24.2733E-03
            3072               1     151.387E-03     155.618E-03     20.4099E-03     20.9362E-03
            3073               1     152.851E-03     156.574E-03     17.2727E-03     17.8620E-03
            3074               1     150.500E-03     155.076E-03     9.45196E-03     10.2913E-03
            3075               1     145.057E-03     150.270E-03     2.21072E-03     2.61822E-03
            3076               1     126.074E-03     129.737E-03     19.2037E-03     18.8519E-03
            3077               1     124.263E-03     127.701E-03     17.0280E-03     16.7949E-03
            3078               1     123.079E-03     127.611E-03     17.3258E-03     17.1738E-03
            3079               1     124.537E-03     127.923E-03     17.6018E-03     17.0545E-03
            3080               1     125.186E-03     129.262E-03     18.3338E-03     18.1935E-03
            3081               1     127.473E-03     130.843E-03     19.1300E-03     18.7503E-03
            3082               1     128.924E-03     132.615E-03     20.1181E-03     20.0252E-03
            3083               1     131.534E-03     134.875E-03     21.0159E-03     20.8326E-03
            3084               1     133.257E-03     136.736E-03     22.2094E-03     22.1654E-03
            3085               1     136.230E-03     139.537E-03     23.1347E-03     23.1031E-03
            3086               1     138.029E-03     141.430E-03     24.5029E-03     24.5105E-03
            3087               1     141.706E-03     144.989E-03     25.4194E-03     25.5444E-03
            3088               1     143.479E-03     146.965E-03     26.7295E-03     26.8457E-03
            3089               1     148.598E-03     151.910E-03     27.4421E-03     27.8300E-03
            3090               1     150.020E-03     153.887E-03     27.4967E-03     27.8775E-03
            3091               1     157.708E-03     161.206E-03     27.2015E-03     28.0232E-03
            3092               1     157.766E-03     162.552E-03     20.9367E-03     21.8245E-03
            3093               1     159.103E-03     163.240E-03     15.6317E-03     16.2581E-03
            3094               1     156.379E-03     160.652E-03     4.64431E-03     6.01599E-03
            3095               1     123.997E-03     127.405E-03     13.0777E-03     13.2432E-03
            3096               1     120.283E-03     125.071E-03     13.9877E-03     14.1613E-03
            3097               1     121.293E-03     124.604E-03     14.9115E-03     14.1656E-03
            3098               1     121.199E-03     125.484E-03     15.8986E-03     15.7831E-03
            3099               1     123.312E-03     126.797E-03     17.1198E-03     16.5193E-03
            3100               1     124.626E-03     128.620E-03     18.3212E-03     18.1721E-03
            3101               1     127.060E-03     130.698E-03     19.4907E-03     19.1572E-03
            3102               1     128.868E-03     132.741E-03     20.9301E-03     20.8314E-03
            3103               1     131.506E-03     135.222E-03     22.0631E-03     21.9296E-03
            3104               1     133.498E-03     137.311E-03     23.7813E-03     23.7362E-03
            3105               1     136.527E-03     140.250E-03     24.9099E-03     24.9340E-03
            3106               1     138.683E-03     142.468E-03     26.9401E-03     26.9620E-03
            3107               1     142.713E-03     146.390E-03     28.0313E-03     28.2659E-03
            3108               1     145.164E-03     148.983E-03     30.1875E-03     30.3527E-03
            3109               1     151.924E-03     155.525E-03     31.0403E-03     31.6684E-03
            3110               1     154.560E-03     158.606E-03     31.8795E-03     32.3982E-03
            3111               1     169.023E-03     172.611E-03     31.7458E-03     33.0478E-03
            3112               1     169.297E-03     174.760E-03     19.7195E-03     21.0950E-03
            3113               1     166.840E-03     171.368E-03     10.3042E-03     10.3665E-03
            3114               1     117.858E-03     122.736E-03     9.43660E-03     10.3205E-03
            3115               1     118.418E-03     121.420E-03     11.7906E-03     10.9911E-03
            3116               1     117.317E-03     121.461E-03     12.9936E-03     13.0647E-03
            3117               1     119.138E-03     122.498E-03     14.7784E-03     14.0927E-03
            3118               1     120.196E-03     124.255E-03     16.1147E-03     15.9900E-03
            3119               1     122.401E-03     126.200E-03     17.5372E-03     17.1339E-03
            3120               1     124.207E-03     128.369E-03     19.0951E-03     18.9833E-03
            3121               1     126.554E-03     130.634E-03     20.3752E-03     20.1838E-03
            3122               1     128.636E-03     132.874E-03     22.2131E-03     22.1459E-03
            3123               1     131.131E-03     135.326E-03     23.4478E-03     23.3953E-03
            3124               1     133.423E-03     137.662E-03     25.6646E-03     25.6362E-03
            3125               1     136.347E-03     140.524E-03     26.8674E-03     26.9473E-03
            3126               1     139.108E-03     143.267E-03     29.6124E-03     29.6376E-03
            3127               1     143.392E-03     147.419E-03     30.7092E-03     31.0163E-03
            3128               1     147.325E-03     151.304E-03     34.1708E-03     34.3190E-03
            3129               1     156.171E-03     159.846E-03     34.9663E-03     35.7427E-03
            3130               1     162.260E-03     166.029E-03     38.7002E-03     39.2502E-03
            3131               1     191.425E-03     194.479E-03     38.6429E-03     40.6197E-03
            3132               1     187.359E-03     193.978E-03     14.1011E-03     16.3495E-03
            3133               1     116.312E-03     118.420E-03     8.75109E-03     8.18192E-03
            3134               1     114.220E-03     117.573E-03     9.98089E-03     10.2648E-03
            3135               1     115.356E-03     118.172E-03     12.2972E-03     11.8765E-03
            3136               1     116.057E-03     119.834E-03     13.7417E-03     13.7377E-03
            3137               1     117.867E-03     121.634E-03     15.3183E-03     15.0779E-03
            3138               1     119.571E-03     123.882E-03     16.9502E-03     16.9032E-03
            3139               1     121.627E-03     126.006E-03     18.3072E-03     18.1879E-03
            3140               1     123.723E-03     128.358E-03     20.1691E-03     20.1335E-03
            3141               1     125.847E-03     130.518E-03     21.4602E-03     21.4130E-03
            3142               1     128.169E-03     132.931E-03     23.6401E-03     23.6174E-03
            3143               1     130.382E-03     135.130E-03     24.8887E-03     24.8932E-03
            3144               1     133.107E-03     137.845E-03     27.5426E-03     27.5274E-03
            3145               1     135.733E-03     140.384E-03     28.6830E-03     28.7607E-03
            3146               1     139.564E-03     144.094E-03     32.1558E-03     32.1433E-03
            3147               1     143.669E-03     147.982E-03     32.9879E-03     33.2278E-03
            3148               1     150.696E-03     154.666E-03     38.3629E-03     38.3474E-03
            3149               1     160.242E-03     163.723E-03     38.2442E-03     38.9079E-03
            3150               1     178.182E-03     180.663E-03     50.2160E-03     50.3225E-03
            3151               1     232.298E-03     232.560E-03     42.2723E-03     45.3039E-03
            3152               1     147.514E-03     144.980E-03     41.9126E-03     42.5455E-03
            3153               1     149.025E-03     147.614E-03     37.9055E-03     38.2915E-03
            3154               1     150.771E-03     149.816E-03     34.5681E-03     34.8985E-03
            3155               1     152.210E-03     152.022E-03     31.7778E-03     31.9923E-03
            3156               1     153.915E-03     153.924E-03     29.5466E-03     29.6998E-03
            3157               1     155.502E-03     155.900E-03     27.5542E-03     27.6281E-03
            3158               1     157.111E-03     157.554E-03     25.7536E-03     25.8232E-03
            3159               1     158.689E-03     159.330E-03     24.0815E-03     24.1061E-03
            3160               1     160.018E-03     160.660E-03     22.1925E-03     22.2285E-03
            3161               1     161.342E-03     162.128E-03     20.3863E-03     20.4113E-03
            3162               1     162.139E-03     162.929E-03     17.8910E-03     17.9187E-03
            3163               1     162.870E-03     163.816E-03     15.4308E-03     15.4674E-03
            3164               1     162.850E-03     163.790E-03     11.7034E-03     11.7241E-03
            3165               1     162.365E-03     163.427E-03     7.78068E-03     7.78750E-03
            3166               1     161.411E-03     162.313E-03     2.27660E-03     2.22306E-03
            3167               1     158.952E-03     159.648E-03    -4.52069E-03    -4.72277E-03
            3168               1     158.216E-03     157.995E-03    -11.5091E-03    -12.0104E-03
            3169               1     155.401E-03     153.731E-03    -24.3903E-03    -25.5454E-03
            3170               1     171.233E-03     164.523E-03    -27.8376E-03    -32.8362E-03
            3171               1     147.416E-03     149.132E-03     37.6049E-03     38.2936E-03
            3172               1     149.834E-03     150.971E-03     34.0527E-03     34.9795E-03
            3173               1     151.475E-03     152.699E-03     31.3377E-03     31.9837E-03
            3174               1     153.238E-03     154.406E-03     29.2664E-03     29.8100E-03
            3175               1     154.971E-03     156.143E-03     27.4899E-03     27.7597E-03
            3176               1     156.594E-03     157.844E-03     25.9704E-03     26.2459E-03
            3177               1     158.497E-03     159.765E-03     24.6339E-03     24.7145E-03
            3178               1     160.102E-03     161.428E-03     23.2045E-03     23.3396E-03
            3179               1     162.071E-03     163.444E-03     21.9010E-03     21.9497E-03
            3180               1     163.557E-03     164.958E-03     20.2065E-03     20.2853E-03
            3181               1     165.478E-03     166.940E-03     18.6020E-03     18.6785E-03
            3182               1     166.731E-03     168.201E-03     16.1828E-03     16.2430E-03
            3183               1     168.287E-03     169.784E-03     13.8679E-03     13.9350E-03
            3184               1     169.362E-03     170.839E-03     10.0212E-03     10.0212E-03
            3185               1     169.343E-03     170.722E-03     6.32109E-03     6.12922E-03
            3186               1     171.035E-03     172.274E-03     493.873E-06     108.504E-06
            3187               1     166.679E-03     167.998E-03    -5.14540E-03    -6.34685E-03
            3188               1     174.162E-03     175.417E-03    -12.0472E-03    -14.6037E-03
            3189               1     151.596E-03     162.712E-03    -8.60505E-03    -10.9550E-03
            3190               1     147.688E-03     150.889E-03     32.7384E-03     32.9187E-03
            3191               1     149.269E-03     152.822E-03     29.5373E-03     30.2505E-03
            3192               1     151.368E-03     154.220E-03     27.7067E-03     28.3121E-03
            3193               1     153.285E-03     155.705E-03     26.1553E-03     26.5520E-03
            3194               1     154.992E-03     157.370E-03     25.1056E-03     25.5317E-03
            3195               1     157.185E-03     159.263E-03     24.2321E-03     24.3604E-03
            3196               1     158.960E-03     161.102E-03     23.3461E-03     23.5811E-03
            3197               1     161.310E-03     163.345E-03     22.6123E-03     22.6641E-03
            3198               1     163.176E-03     165.258E-03     21.6688E-03     21.7976E-03
            3199               1     165.707E-03     167.770E-03     20.8451E-03     20.9175E-03
            3200               1     167.616E-03     169.698E-03     19.6055E-03     19.6858E-03
            3201               1     170.358E-03     172.421E-03     18.5520E-03     18.6512E-03
            3202               1     172.327E-03     174.424E-03     16.5099E-03     16.5502E-03
            3203               1     174.944E-03     176.955E-03     15.0551E-03     15.0562E-03
            3204               1     177.243E-03     179.453E-03     11.0526E-03     10.9325E-03
            3205               1     177.233E-03     179.522E-03     8.92528E-03     8.41056E-03
            3206               1     180.365E-03     183.249E-03     2.24265E-03     1.44320E-03
            3207               1     171.190E-03     177.746E-03     2.67108E-03     1.70584E-03
            3208               1     159.296E-03     162.516E-03    -5.70179E-03    -4.19076E-03
            3209               1     146.723E-03     152.116E-03     27.1395E-03     27.4936E-03
            3210               1     148.596E-03     152.980E-03     25.2064E-03     25.1604E-03
            3211               1     150.388E-03     154.251E-03     23.5644E-03     23.7951E-03
            3212               1     152.059E-03     155.784E-03     23.0401E-03     23.3780E-03
            3213               1     154.583E-03     157.624E-03     22.6810E-03     22.7217E-03
            3214               1     156.472E-03     159.578E-03     22.3688E-03     22.6327E-03
            3215               1     159.122E-03     161.904E-03     22.2407E-03     22.2457E-03
            3216               1     161.207E-03     164.057E-03     21.9583E-03     22.1221E-03
            3217               1     164.016E-03     166.748E-03     21.8162E-03     21.8553E-03
            3218               1     166.256E-03     169.018E-03     21.5055E-03     21.5995E-03
            3219               1     169.409E-03     172.113E-03     21.3474E-03     21.4348E-03
            3220               1     171.784E-03     174.513E-03     20.8230E-03     20.8696E-03
            3221               1     175.548E-03     178.193E-03     20.7516E-03     20.8553E-03
            3222               1     178.019E-03     180.835E-03     19.2763E-03     19.2781E-03
            3223               1     182.303E-03     185.085E-03     19.4160E-03     19.4326E-03
            3224               1     184.436E-03     187.934E-03     14.6203E-03     14.5684E-03
            3225               1     184.093E-03     188.680E-03     14.6567E-03     14.4563E-03
            3226               1     178.734E-03     183.165E-03     5.87132E-03     6.86702E-03
            3227               1     165.662E-03     172.383E-03     711.371E-06    -492.766E-06
            3228               1     146.510E-03     151.371E-03     22.0781E-03     21.0851E-03
            3229               1     146.995E-03     151.757E-03     19.8437E-03     19.7468E-03
            3230               1     147.943E-03     152.881E-03     19.8754E-03     19.8127E-03
            3231               1     150.760E-03     154.684E-03     20.0355E-03     19.7683E-03
            3232               1     152.633E-03     156.724E-03     20.2706E-03     20.4114E-03
            3233               1     155.602E-03     159.148E-03     20.7650E-03     20.6186E-03
            3234               1     157.835E-03     161.502E-03     21.0428E-03     21.1892E-03
            3235               1     160.817E-03     164.258E-03     21.5077E-03     21.4760E-03
            3236               1     163.237E-03     166.738E-03     21.8687E-03     21.9688E-03
            3237               1     166.420E-03     169.819E-03     22.3532E-03     22.3976E-03
            3238               1     168.984E-03     172.400E-03     22.8420E-03     22.8851E-03
            3239               1     172.743E-03     176.073E-03     23.5414E-03     23.6417E-03
            3240               1     175.375E-03     178.768E-03     23.9904E-03     23.9983E-03
            3241               1     180.513E-03     183.814E-03     25.2214E-03     25.3963E-03
            3242               1     182.706E-03     186.376E-03     24.4827E-03     24.5856E-03
            3243               1     190.324E-03     194.195E-03     26.3450E-03     26.7375E-03
            3244               1     189.044E-03     193.973E-03     18.9891E-03     19.8749E-03
            3245               1     186.889E-03     192.078E-03     15.8940E-03     15.7341E-03
            3246               1     177.656E-03     183.345E-03     2.87446E-03     5.03197E-03
            3247               1     144.387E-03     149.043E-03     14.6410E-03     14.5309E-03
            3248               1     143.160E-03     148.837E-03     15.5577E-03     15.2065E-03
            3249               1     146.115E-03     150.430E-03     16.4979E-03     15.7644E-03
            3250               1     147.657E-03     152.494E-03     17.2077E-03     17.1074E-03
            3251               1     150.945E-03     155.099E-03     18.3619E-03     17.9476E-03
            3252               1     153.268E-03     157.694E-03     19.0862E-03     19.1408E-03
            3253               1     156.430E-03     160.560E-03     20.1003E-03     19.9519E-03
            3254               1     158.978E-03     163.238E-03     20.9269E-03     21.0105E-03
            3255               1     162.117E-03     166.238E-03     21.8993E-03     21.8853E-03
            3256               1     164.771E-03     168.933E-03     22.9671E-03     23.0104E-03
            3257               1     168.155E-03     172.223E-03     24.1112E-03     24.1652E-03
            3258               1     170.878E-03     174.954E-03     25.5598E-03     25.5478E-03
            3259               1     175.150E-03     179.124E-03     27.1734E-03     27.3114E-03
            3260               1     177.761E-03     181.818E-03     28.9233E-03     28.9396E-03
            3261               1     184.767E-03     188.749E-03     31.3063E-03     31.6974E-03
            3262               1     186.142E-03     190.537E-03     31.8596E-03     32.3326E-03
            3263               1     200.753E-03     204.976E-03     33.9880E-03     34.9556E-03
            3264               1     197.063E-03     203.610E-03     19.9944E-03     21.8410E-03
            3265               1     189.856E-03     195.138E-03     10.7431E-03     10.2580E-03
            3266               1     138.163E-03     143.806E-03     9.56619E-03     9.73220E-03
            3267               1     141.163E-03     145.078E-03     12.2377E-03     11.1706E-03
            3268               1     142.007E-03     147.017E-03     13.3740E-03     13.1390E-03
            3269               1     145.469E-03     149.853E-03     15.2994E-03     14.6442E-03
            3270               1     147.807E-03     152.775E-03     16.3685E-03     16.3008E-03
            3271               1     151.138E-03     155.853E-03     17.8697E-03     17.6081E-03
            3272               1     153.812E-03     158.793E-03     19.0167E-03     19.0545E-03
            3273               1     156.958E-03     161.795E-03     20.3602E-03     20.2924E-03
            3274               1     159.677E-03     164.610E-03     21.7287E-03     21.7693E-03
            3275               1     162.754E-03     167.584E-03     23.1553E-03     23.1649E-03
            3276               1     165.477E-03     170.327E-03     24.9648E-03     24.9578E-03
            3277               1     168.790E-03     173.542E-03     26.7209E-03     26.7808E-03
            3278               1     171.554E-03     176.301E-03     29.2579E-03     29.2123E-03
            3279               1     176.037E-03     180.654E-03     31.5444E-03     31.7395E-03
            3280               1     178.951E-03     183.576E-03     35.1041E-03     35.1838E-03
            3281               1     187.909E-03     192.242E-03     37.6987E-03     38.2960E-03
            3282               1     191.291E-03     195.920E-03     41.6525E-03     42.3818E-03
            3283               1     221.910E-03     225.564E-03     43.1645E-03     45.0682E-03
            3284               1     212.380E-03     220.687E-03     14.9173E-03     17.7482E-03
            3285               1     136.326E-03     138.620E-03     7.62554E-03     6.86445E-03
            3286               1     136.449E-03     140.584E-03     9.02643E-03     9.04801E-03
            3287               1     139.601E-03     143.584E-03     11.8125E-03     11.3417E-03
            3288               1     141.865E-03     147.026E-03     13.2010E-03     13.1369E-03
            3289               1     145.230E-03     150.359E-03     15.0934E-03     14.8985E-03
            3290               1     148.037E-03     153.679E-03     16.4960E-03     16.4904E-03
            3291               1     151.239E-03     156.774E-03     18.0830E-03     18.0236E-03
            3292               1     154.055E-03     159.770E-03     19.6107E-03     19.6265E-03
            3293               1     156.997E-03     162.589E-03     21.1882E-03     21.1805E-03
            3294               1     159.688E-03     165.340E-03     23.0483E-03     23.0521E-03
            3295               1     162.441E-03     167.983E-03     24.8615E-03     24.8748E-03
            3296               1     165.089E-03     170.671E-03     27.3649E-03     27.3403E-03
            3297               1     167.945E-03     173.401E-03     29.5744E-03     29.6258E-03
            3298               1     171.000E-03     176.468E-03     33.2273E-03     33.1831E-03
            3299               1     174.928E-03     180.146E-03     35.6319E-03     35.8170E-03
            3300               1     180.287E-03     185.316E-03     41.6472E-03     41.6414E-03
            3301               1     189.380E-03     193.793E-03     43.0198E-03     43.6421E-03
            3302               1     205.698E-03     209.169E-03     56.4636E-03     56.6821E-03
            3303               1     263.799E-03     264.567E-03     48.0519E-03     51.4416E-03
            3304               1     329.238E-03     303.349E-03     65.6743E-03     72.4301E-03
            3305               1     263.973E-03     242.397E-03     66.3046E-03     66.5155E-03
            3306               1     237.939E-03     215.362E-03     46.6068E-03     46.7563E-03
            3307               1     210.767E-03     188.410E-03     36.6417E-03     36.7813E-03
            3308               1     187.219E-03     164.547E-03     28.0745E-03     28.1594E-03
            3309               1     162.192E-03     140.052E-03     21.2229E-03     21.4974E-03
            3310               1     137.468E-03     115.827E-03     17.0276E-03     17.3612E-03
            3311               1     112.615E-03     91.7970E-03     13.6910E-03     13.9278E-03
            3312               1     87.7336E-03     67.7738E-03     11.5917E-03     11.9461E-03
            3313               1     63.1844E-03     44.4082E-03     10.2578E-03     10.4779E-03
            3314               1     39.0881E-03     23.4352E-03     9.40542E-03     9.76547E-03
            3315               1     19.4830E-03     18.4886E-03     9.39975E-03     9.59819E-03
            3316               1     21.9208E-03     36.5342E-03     9.44342E-03     9.84410E-03
            3317               1     43.3024E-03     59.5667E-03     10.6735E-03     10.8221E-03
            3318               1     67.4125E-03     83.0254E-03     11.4653E-03     11.9994E-03
            3319               1     91.6606E-03     107.230E-03     14.2294E-03     14.2233E-03
            3320               1     117.304E-03     131.088E-03     15.3571E-03     16.2852E-03
            3321               1     142.304E-03     156.729E-03     20.5131E-03     19.8031E-03
            3322               1     173.203E-03     185.255E-03     20.2151E-03     21.7969E-03
            3323               1     274.606E-03     277.897E-03     37.8612E-03     35.6602E-03
            3324               1     292.659E-03     279.010E-03     55.8287E-03     57.3929E-03
            3325               1     244.405E-03     231.093E-03     44.4429E-03     44.6947E-03
            3326               1     223.993E-03     209.336E-03     38.0400E-03     37.8756E-03
            3327               1     193.364E-03     179.332E-03     29.6825E-03     30.4373E-03
            3328               1     166.857E-03     153.624E-03     25.9189E-03     26.6387E-03
            3329               1     140.786E-03     127.745E-03     22.4993E-03     23.1251E-03
            3330               1     114.838E-03     102.625E-03     20.3106E-03     21.2327E-03
            3331               1     90.1172E-03     78.4786E-03     18.9354E-03     19.5015E-03
            3332               1     65.7842E-03     55.8404E-03     17.7966E-03     18.7344E-03
            3333               1     44.6537E-03     37.3796E-03     17.5329E-03     18.0573E-03
            3334               1     30.4160E-03     31.7142E-03     17.1008E-03     18.0939E-03
            3335               1     35.8372E-03     43.3736E-03     17.7742E-03     18.2163E-03
            3336               1     54.0478E-03     64.1754E-03     17.9095E-03     19.0608E-03
            3337               1     76.9600E-03     86.9403E-03     19.7391E-03     20.0281E-03
            3338               1     101.809E-03     111.691E-03     20.4445E-03     21.9514E-03
            3339               1     125.983E-03     136.026E-03     23.9038E-03     23.8006E-03
            3340               1     155.089E-03     163.557E-03     24.9829E-03     26.9621E-03
            3341               1     179.455E-03     189.654E-03     29.6225E-03     28.0569E-03
            3342               1     277.780E-03     265.445E-03     39.5954E-03     34.2841E-03
            3343               1     268.927E-03     268.740E-03     32.4432E-03     29.8062E-03
            3344               1     260.982E-03     252.520E-03     40.9427E-03     40.2770E-03
            3345               1     223.369E-03     216.922E-03     29.6562E-03     30.7391E-03
            3346               1     195.271E-03     190.326E-03     29.8053E-03     30.7795E-03
            3347               1     167.859E-03     162.406E-03     27.2516E-03     28.0606E-03
            3348               1     141.215E-03     136.717E-03     26.3312E-03     27.5041E-03
            3349               1     116.456E-03     111.832E-03     25.7000E-03     26.4436E-03
            3350               1     91.9509E-03     88.2764E-03     24.9626E-03     26.1676E-03
            3351               1     70.2140E-03     66.9339E-03     24.8971E-03     25.6136E-03
            3352               1     51.4573E-03     50.6006E-03     24.4383E-03     25.6827E-03
            3353               1     43.0662E-03     44.0291E-03     24.7683E-03     25.4086E-03
            3354               1     48.0752E-03     52.5082E-03     24.5161E-03     25.8776E-03
            3355               1     64.9578E-03     69.1868E-03     25.3781E-03     25.8826E-03
            3356               1     86.6392E-03     91.7667E-03     25.4298E-03     26.9866E-03
            3357               1     109.721E-03     114.655E-03     27.0177E-03     27.3396E-03
            3358               1     136.653E-03     140.950E-03     27.6905E-03     29.3885E-03
            3359               1     159.617E-03     165.703E-03     28.8611E-03     29.2172E-03
            3360               1     194.391E-03     195.528E-03     29.9201E-03     30.6164E-03
            3361               1     269.099E-03     272.831E-03     34.2401E-03     28.7597E-03
            3362               1     276.691E-03     266.477E-03     34.0517E-03     29.8451E-03
            3363               1     250.210E-03     251.821E-03     17.6161E-03     19.0829E-03
            3364               1     216.348E-03     219.963E-03     26.1521E-03     27.6911E-03
            3365               1     190.405E-03     192.825E-03     26.3415E-03     27.0847E-03
            3366               1     163.673E-03     167.224E-03     28.5478E-03     29.8590E-03
            3367               1     139.789E-03     142.426E-03     29.7564E-03     30.4423E-03
            3368               1     115.916E-03     119.044E-03     30.3580E-03     31.5579E-03
            3369               1     94.4951E-03     97.0134E-03     31.1727E-03     31.8943E-03
            3370               1     74.7355E-03     77.6796E-03     31.2763E-03     32.4827E-03
            3371               1     60.7980E-03     62.7043E-03     31.7421E-03     32.4292E-03
            3372               1     54.6416E-03     56.8880E-03     31.5459E-03     32.8281E-03
            3373               1     60.7350E-03     61.0148E-03     31.8388E-03     32.4158E-03
            3374               1     75.1624E-03     75.8936E-03     31.4168E-03     32.8075E-03
            3375               1     94.4570E-03     94.1221E-03     31.5745E-03     32.0376E-03
            3376               1     117.641E-03     117.359E-03     31.1619E-03     32.5118E-03
            3377               1     139.497E-03     140.081E-03     30.3475E-03     31.0028E-03
            3378               1     166.979E-03     165.401E-03     29.9394E-03     30.6087E-03
            3379               1     187.684E-03     189.085E-03     21.8562E-03     25.3262E-03
            3380               1     301.817E-03     279.669E-03     36.0664E-03     34.1468E-03
            3381               1     272.525E-03     281.902E-03     1.68385E-03     6.94316E-03
            3382               1     221.290E-03     234.307E-03     12.3444E-03     14.7766E-03
            3383               1     204.413E-03     216.056E-03     19.8792E-03     20.3246E-03
            3384               1     178.309E-03     190.575E-03     26.3022E-03     27.6992E-03
            3385               1     157.586E-03     168.111E-03     30.8304E-03     31.2174E-03
            3386               1     135.713E-03     146.279E-03     33.7192E-03     34.7020E-03
            3387               1     115.900E-03     125.082E-03     36.1369E-03     36.6545E-03
            3388               1     97.0649E-03     105.610E-03     37.4386E-03     38.3441E-03
            3389               1     81.8044E-03     88.3024E-03     38.5772E-03     39.1220E-03
            3390               1     70.9084E-03     75.6568E-03     38.9460E-03     39.8863E-03
            3391               1     68.0302E-03     69.0222E-03     39.2347E-03     39.7229E-03
            3392               1     73.1949E-03     72.0949E-03     38.8825E-03     39.8951E-03
            3393               1     85.3879E-03     81.3484E-03     38.3714E-03     38.7528E-03
            3394               1     102.468E-03     98.0633E-03     37.2914E-03     38.2960E-03
            3395               1     120.907E-03     115.753E-03     35.3510E-03     35.7908E-03
            3396               1     142.822E-03     137.017E-03     33.3184E-03     33.8996E-03
            3397               1     161.487E-03     157.167E-03     27.2847E-03     28.6615E-03
            3398               1     179.033E-03     174.751E-03     21.4966E-03     21.4410E-03
            3399               1     297.253E-03     342.284E-03    -14.4565E-03    -2.77155E-03
            3400               1     219.925E-03     248.761E-03    -8.84756E-03    -4.93463E-03
            3401               1     205.187E-03     227.806E-03     12.8230E-03     13.1011E-03
            3402               1     182.834E-03     204.654E-03     20.6686E-03     21.6189E-03
            3403               1     167.640E-03     186.847E-03     29.9260E-03     29.9272E-03
            3404               1     149.742E-03     168.370E-03     35.5807E-03     36.0559E-03
            3405               1     133.230E-03     149.721E-03     40.0826E-03     40.2445E-03
            3406               1     116.951E-03     131.924E-03     43.0851E-03     43.4363E-03
            3407               1     102.633E-03     114.963E-03     45.2562E-03     45.4712E-03
            3408               1     91.0062E-03     100.374E-03     46.5930E-03     46.9339E-03
            3409               1     83.8740E-03     89.0682E-03     47.3189E-03     47.5361E-03
            3410               1     82.6240E-03     83.4363E-03     47.5521E-03     47.9078E-03
            3411               1     87.1754E-03     83.4177E-03     47.0533E-03     47.2471E-03
            3412               1     97.3310E-03     90.7867E-03     46.2665E-03     46.6232E-03
            3413               1     110.193E-03     101.137E-03     44.1109E-03     44.2948E-03
            3414               1     126.017E-03     116.356E-03     41.7872E-03     42.0303E-03
            3415               1     140.854E-03     130.427E-03     36.3884E-03     36.7990E-03
            3416               1     155.757E-03     145.344E-03     30.6451E-03     30.5779E-03
            3417               1     166.858E-03     156.183E-03     19.9920E-03     20.5025E-03
            3418               1     271.208E-03     270.364E-03    -3.10013E-03    -3.15860E-03
            3419               1     249.277E-03     248.434E-03    -3.10013E-03    -3.15860E-03
            3420               1     227.348E-03     226.504E-03    -3.10014E-03    -3.15860E-03
            3421               1     205.419E-03     204.576E-03    -3.10013E-03    -3.15860E-03
            3422               1     183.492E-03     182.650E-03    -3.10014E-03    -3.15860E-03
            3423               1     161.568E-03     160.726E-03    -3.10013E-03    -3.15860E-03
            3424               1     139.647E-03     138.805E-03    -3.10014E-03    -3.15860E-03
            3425               1     117.731E-03     116.890E-03    -3.10014E-03    -3.15860E-03
            3426               1     95.8233E-03     94.9845E-03    -3.10013E-03    -3.15860E-03
            3427               1     73.9328E-03     73.0966E-03    -3.10014E-03    -3.15860E-03
            3428               1     52.0798E-03     51.2491E-03    -3.10013E-03    -3.15860E-03
            3429               1     30.3458E-03     29.5322E-03    -3.10014E-03    -3.15860E-03
            3430               1     9.57836E-03     8.95201E-03    -3.10013E-03    -3.15860E-03
            3431               1     14.9977E-03     15.8252E-03    -3.10014E-03    -3.15860E-03
            3432               1     36.3377E-03     37.1893E-03    -3.10013E-03    -3.15860E-03
            3433               1     58.1226E-03     58.9743E-03    -3.10013E-03    -3.15860E-03
            3434               1     79.9897E-03     80.8406E-03    -3.10014E-03    -3.15860E-03
            3435               1     101.886E-03     102.736E-03    -3.10014E-03    -3.15860E-03
            3436               1     123.796E-03     124.646E-03    -3.10013E-03    -3.15859E-03
            3437               1     53.1589E-03     57.5802E-03     29.3602E-03     30.5312E-03
            3438               1     43.7380E-03     45.1720E-03     25.1663E-03     26.0228E-03
            3439               1     59.9583E-03     58.1799E-03     34.1330E-03     33.2678E-03
            3440               1     42.6959E-03     43.7913E-03     24.6273E-03     25.2751E-03
            3441               1     60.0092E-03     58.5234E-03     34.5966E-03     33.7553E-03
            3442               1     48.0025E-03     47.0180E-03     27.5393E-03     26.8845E-03
            3443               1     60.6210E-03     59.9636E-03     34.5762E-03     34.0167E-03
            3444               1     49.4450E-03     48.1466E-03     27.6315E-03     26.9141E-03
            3445               1     61.9229E-03     60.7205E-03     33.8828E-03     33.3631E-03
            3446               1     49.4196E-03     49.0788E-03     26.8216E-03     26.3012E-03
            3447               1     61.2489E-03     61.7039E-03     32.1404E-03     31.6613E-03
            3448               1     50.1309E-03     48.9060E-03     25.5168E-03     24.7891E-03
            3449               1     64.1916E-03     61.6484E-03     29.9200E-03     29.3506E-03
            3450               1     45.1722E-03     47.4644E-03     21.0998E-03     21.7993E-03
            3451               1     58.7793E-03     66.6253E-03     23.8448E-03     25.4568E-03
            3452               1     42.5272E-03     47.1726E-03     20.5564E-03     21.5427E-03
            3453               1     65.4268E-03     65.8031E-03     37.1600E-03     37.8634E-03
            3454               1     63.6756E-03     62.5628E-03     32.6606E-03     33.3564E-03
            3455               1     72.8724E-03     71.6634E-03     40.8418E-03     39.6434E-03
            3456               1     61.0724E-03     61.7075E-03     31.1398E-03     31.8296E-03
            3457               1     74.6458E-03     72.6967E-03     39.7055E-03     38.4737E-03
            3458               1     65.8931E-03     65.9806E-03     33.0112E-03     32.4432E-03
            3459               1     75.5616E-03     75.4761E-03     38.5169E-03     37.9516E-03
            3460               1     68.3709E-03     67.7600E-03     32.1167E-03     31.3551E-03
            3461               1     77.5944E-03     76.8532E-03     36.8589E-03     36.2838E-03
            3462               1     69.4001E-03     70.0440E-03     30.8343E-03     30.4153E-03
            3463               1     78.0323E-03     79.0754E-03     34.9036E-03     34.7329E-03
            3464               1     71.6039E-03     71.3458E-03     29.2515E-03     28.6034E-03
            3465               1     81.4886E-03     81.0070E-03     32.9213E-03     32.8216E-03
            3466               1     70.9556E-03     72.7995E-03     26.2899E-03     26.3468E-03
            3467               1     80.5636E-03     83.8878E-03     29.2009E-03     29.3246E-03
            3468               1     72.6666E-03     72.7047E-03     23.6543E-03     23.1737E-03
            3469               1     85.4017E-03     82.3946E-03     25.1056E-03     24.9704E-03
            3470               1     68.8517E-03     71.9188E-03     17.5086E-03     18.4573E-03
            3471               1     80.7397E-03     90.1760E-03     17.5655E-03     19.6913E-03
            3472               1     62.5725E-03     68.2645E-03     15.8308E-03     17.0399E-03
            3473               1     89.6683E-03     87.3487E-03     45.5759E-03     45.7534E-03
            3474               1     91.8569E-03     89.1875E-03     40.2896E-03     40.7043E-03
            3475               1     96.5338E-03     95.2957E-03     47.6341E-03     45.9587E-03
            3476               1     89.3412E-03     90.1390E-03     37.8675E-03     38.5712E-03
            3477               1     98.5342E-03     97.4954E-03     44.7328E-03     43.1402E-03
            3478               1     93.3012E-03     94.0930E-03     38.1958E-03     37.4091E-03
            3479               1     99.6485E-03     99.4078E-03     41.8780E-03     40.9579E-03
            3480               1     95.4421E-03     96.3147E-03     36.0750E-03     35.2942E-03
            3481               1     100.848E-03     101.584E-03     39.1900E-03     38.6203E-03
            3482               1     97.6429E-03     98.4540E-03     33.9615E-03     33.2249E-03
            3483               1     103.312E-03     103.720E-03     36.5661E-03     36.3104E-03
            3484               1     98.2918E-03     100.237E-03     30.9609E-03     30.7070E-03
            3485               1     103.934E-03     106.314E-03     33.3512E-03     33.3961E-03
            3486               1     100.589E-03     101.675E-03     28.3790E-03     27.9945E-03
            3487               1     107.942E-03     108.092E-03     30.1768E-03     30.4703E-03
            3488               1     99.8407E-03     103.254E-03     23.8490E-03     24.3197E-03
            3489               1     106.784E-03     112.230E-03     24.7196E-03     25.3726E-03
            3490               1     101.485E-03     102.740E-03     20.1015E-03     19.8642E-03
            3491               1     112.070E-03     108.848E-03     18.7756E-03     19.1275E-03
            3492               1     98.3773E-03     101.858E-03     12.4479E-03     13.5101E-03
            3493               1     107.502E-03     117.206E-03     9.93223E-03     12.5360E-03
            3494               1     90.1035E-03     95.4347E-03     9.72942E-03     11.1046E-03
            3495               1     118.152E-03     114.772E-03     53.1108E-03     52.7574E-03
            3496               1     121.837E-03     118.479E-03     47.0825E-03     47.2480E-03
            3497               1     124.581E-03     123.199E-03     53.5138E-03     51.4615E-03
            3498               1     119.923E-03     121.029E-03     43.5647E-03     44.1731E-03
            3499               1     125.929E-03     126.125E-03     48.6247E-03     46.5887E-03
            3500               1     122.975E-03     124.773E-03     42.1451E-03     41.2949E-03
            3501               1     126.802E-03     126.875E-03     43.9388E-03     42.7959E-03
            3502               1     124.855E-03     126.905E-03     38.7178E-03     37.6945E-03
            3503               1     127.241E-03     129.025E-03     39.9625E-03     39.2841E-03
            3504               1     126.823E-03     128.606E-03     35.1212E-03     34.3669E-03
            3505               1     129.779E-03     130.701E-03     36.0785E-03     35.8549E-03
            3506               1     127.007E-03     130.176E-03     30.9341E-03     30.7021E-03
            3507               1     129.747E-03     133.255E-03     31.6335E-03     31.8291E-03
            3508               1     129.183E-03     131.263E-03     27.1490E-03     26.9007E-03
            3509               1     133.986E-03     134.567E-03     27.2370E-03     27.8202E-03
            3510               1     127.997E-03     132.684E-03     21.2978E-03     22.0417E-03
            3511               1     132.225E-03     139.201E-03     20.1186E-03     21.2707E-03
            3512               1     129.299E-03     131.593E-03     16.3766E-03     16.3264E-03
            3513               1     137.490E-03     134.254E-03     12.4764E-03     13.3280E-03
            3514               1     126.343E-03     130.246E-03     7.49651E-03     8.58688E-03
            3515               1     132.654E-03     142.066E-03     2.54551E-03     5.55882E-03
            3516               1     117.098E-03     121.743E-03     3.69801E-03     5.16805E-03
            3517               1     140.372E-03     136.849E-03     54.2673E-03     53.4232E-03
            3518               1     145.462E-03     142.252E-03     47.4243E-03     47.5270E-03
            3519               1     146.468E-03     145.794E-03     52.4286E-03     50.4303E-03
            3520               1     144.531E-03     146.064E-03     41.9791E-03     42.4066E-03
            3521               1     148.202E-03     149.860E-03     44.6446E-03     42.3419E-03
            3522               1     145.336E-03     149.664E-03     37.5653E-03     37.4191E-03
            3523               1     147.259E-03     150.115E-03     36.5850E-03     35.9773E-03
            3524               1     147.642E-03     150.909E-03     31.9702E-03     30.6246E-03
            3525               1     149.585E-03     150.998E-03     29.5819E-03     29.3740E-03
            3526               1     146.130E-03     151.877E-03     24.0040E-03     24.4994E-03
            3527               1     146.846E-03     154.349E-03     20.1610E-03     21.4284E-03
            3528               1     146.550E-03     150.144E-03     17.3759E-03     16.6289E-03
            3529               1     150.477E-03     148.063E-03     10.5700E-03     11.5858E-03
            3530               1     143.457E-03     148.115E-03     7.32127E-03     8.12339E-03
            3531               1     145.190E-03     153.960E-03    -104.823E-06     3.12687E-03
            3532               1     134.388E-03     138.571E-03     1.86943E-03     3.04598E-03
            3533               1     205.015E-03     221.677E-03     32.4368E-03     27.8364E-03
            3534               1     283.685E-03     310.949E-03     22.9835E-03     17.3334E-03
            3535               1     231.823E-03     234.564E-03     31.6682E-03     30.3588E-03
            3536               1     275.564E-03     257.787E-03     5.51361E-03     8.40118E-03
            3537               1     221.701E-03     221.845E-03     14.7563E-03     20.2248E-03
            3538               1     237.899E-03     247.934E-03    -2.71227E-03    -1.31760E-03
            3539               1     203.138E-03     205.996E-03     12.6440E-03     13.5656E-03
            3540               1     220.223E-03     216.798E-03    -9.87711E-03    -7.16591E-03
            3541               1     189.676E-03     186.541E-03     8.46870E-03     10.8229E-03
            3542               1     188.699E-03     186.114E-03    -11.1037E-03    -8.70564E-03
            3543               1     172.023E-03     162.118E-03     7.79694E-03     7.72156E-03
            3544               1     162.944E-03     155.132E-03    -10.3344E-03    -7.84543E-03
            3545               1     145.940E-03     146.790E-03    -3.10013E-03    -3.15860E-03
            3546               1     168.316E-03     169.165E-03    -3.10013E-03    -3.15860E-03
            3547               1     104.633E-03     126.480E-03     22.4287E-03     19.8511E-03
            3548               1     136.883E-03     107.722E-03     25.0828E-03     24.9232E-03
            3549               1     107.273E-03     124.247E-03     22.4028E-03     24.7299E-03
            3550               1     109.950E-03     105.896E-03     24.1964E-03     23.5620E-03
            3551               1     107.452E-03     103.130E-03     24.7891E-03     25.1681E-03
            3552               1     97.8877E-03     107.293E-03     26.2678E-03     24.2484E-03
            3553               1     107.270E-03     90.4698E-03     24.3276E-03     24.0388E-03
            3554               1     86.6755E-03     95.9548E-03     26.1385E-03     27.8287E-03
            3555               1     93.9661E-03     112.107E-03     24.6214E-03     22.3421E-03
            3556               1     120.604E-03     97.8434E-03     27.0554E-03     27.2869E-03
            3557               1     95.6451E-03     110.726E-03     23.9971E-03     27.1214E-03
            3558               1     95.7054E-03     95.6340E-03     25.2930E-03     26.3245E-03
            3559               1     93.7306E-03     92.8888E-03     25.4576E-03     26.6593E-03
            3560               1     86.5255E-03     89.8535E-03     25.7937E-03     25.8724E-03
            3561               1     86.2191E-03     83.8053E-03     26.4251E-03     25.1536E-03
            3562               1     82.1515E-03     80.3982E-03     26.5512E-03     25.2885E-03
            3563               1     77.9461E-03     80.9448E-03     27.5815E-03     24.9397E-03
            3564               1     80.5551E-03     70.9510E-03     25.6763E-03     24.6414E-03
            3565               1     69.0541E-03     73.7514E-03     26.9471E-03     27.8275E-03
            3566               1     76.7564E-03     89.4669E-03     26.4313E-03     24.5599E-03
            3567               1     95.3749E-03     79.3151E-03     28.3526E-03     28.3616E-03
            3568               1     76.5618E-03     87.5754E-03     25.9872E-03     28.2751E-03
            3569               1     75.9895E-03     76.1394E-03     26.9539E-03     27.6315E-03
            3570               1     73.9952E-03     73.7331E-03     27.0785E-03     27.8965E-03
            3571               1     68.6907E-03     70.6628E-03     27.2648E-03     27.3322E-03
            3572               1     67.7446E-03     65.9650E-03     27.7564E-03     26.8348E-03
            3573               1     64.7675E-03     63.3030E-03     27.8461E-03     26.8985E-03
            3574               1     62.1225E-03     61.9761E-03     28.5086E-03     26.7318E-03
            3575               1     61.0927E-03     56.9656E-03     27.3952E-03     26.5028E-03
            3576               1     56.7110E-03     57.6461E-03     28.0566E-03     28.4163E-03
            3577               1     62.7252E-03     69.8683E-03     28.2022E-03     26.8378E-03
            3578               1     73.0570E-03     63.7994E-03     29.4717E-03     29.3143E-03
            3579               1     61.2568E-03     67.4573E-03     28.0163E-03     29.3110E-03
            3580               1     60.2899E-03     60.2544E-03     28.5880E-03     28.7803E-03
            3581               1     58.9322E-03     58.5241E-03     28.8233E-03     29.0176E-03
            3582               1     56.1044E-03     56.2713E-03     28.9638E-03     28.6393E-03
            3583               1     55.2898E-03     54.0711E-03     29.1957E-03     28.6928E-03
            3584               1     53.8439E-03     52.7167E-03     29.4845E-03     28.6374E-03
            3585               1     52.3214E-03     51.3793E-03     29.1710E-03     28.5837E-03
            3586               1     51.6808E-03     50.9519E-03     29.2284E-03     29.0922E-03
            3587               1     55.0087E-03     57.3619E-03     29.8817E-03     29.0579E-03
            3588               1     58.6119E-03     55.0714E-03     30.6686E-03     30.3204E-03
            3589               1     53.8887E-03     55.5410E-03     29.9373E-03     30.3345E-03
            3590               1     53.5173E-03     53.0925E-03     30.3308E-03     30.0633E-03
            3591               1     53.1614E-03     52.7401E-03     30.3918E-03     30.2200E-03
            3592               1     52.5666E-03     52.4669E-03     30.3285E-03     30.2867E-03
            3593               1     53.2009E-03     52.3768E-03     30.5971E-03     30.2303E-03
            3594               1     52.5267E-03     52.5932E-03     30.2535E-03     29.8623E-03
            3595               1     67.8773E-03     74.2949E-03     28.7257E-03     25.1166E-03
            3596               1     82.7950E-03     71.0110E-03     31.3957E-03     30.8367E-03
            3597               1     65.5480E-03     74.0677E-03     28.4711E-03     30.7609E-03
            3598               1     66.7834E-03     64.1806E-03     29.0035E-03     28.4038E-03
            3599               1     64.0260E-03     62.9649E-03     28.3977E-03     28.8284E-03
            3600               1     61.0136E-03     61.6051E-03     28.5556E-03     27.0534E-03
            3601               1     62.8552E-03     57.4839E-03     27.2104E-03     26.6350E-03
            3602               1     58.0277E-03     63.9597E-03     28.1859E-03     30.8059E-03
            3603               1     64.4880E-03     67.3785E-03     29.9957E-03     26.3514E-03
            3604               1     76.6935E-03     67.4937E-03     32.7169E-03     31.3001E-03
            3605               1     63.3543E-03     69.8961E-03     30.0794E-03     31.4266E-03
            3606               1     65.2482E-03     62.7693E-03     31.0121E-03     29.5077E-03
            3607               1     62.4896E-03     62.8763E-03     30.4237E-03     30.2409E-03
            3608               1     59.4358E-03     60.9315E-03     29.4879E-03     29.8446E-03
            3609               1     57.4671E-03     58.9364E-03     28.9267E-03     29.5209E-03
            3610               1     55.8253E-03     57.1800E-03     28.3965E-03     29.4374E-03
            3611               1     55.1801E-03     55.2700E-03     29.0276E-03     28.1522E-03
            3612               1     54.8552E-03     53.5057E-03     27.9814E-03     28.0308E-03
            3613               1     53.3755E-03     57.4337E-03     28.6648E-03     30.7029E-03
            3614               1     60.2444E-03     60.5249E-03     31.1070E-03     28.2498E-03
            3615               1     68.4703E-03     62.4289E-03     33.3953E-03     32.1511E-03
            3616               1     59.4664E-03     63.5999E-03     31.2572E-03     32.2809E-03
            3617               1     60.7452E-03     58.7554E-03     31.9647E-03     30.8041E-03
            3618               1     58.8692E-03     59.1084E-03     31.5391E-03     31.4730E-03
            3619               1     56.7068E-03     57.7187E-03     30.8062E-03     31.1747E-03
            3620               1     55.4541E-03     56.5013E-03     30.4849E-03     30.9668E-03
            3621               1     54.2962E-03     55.2757E-03     30.1108E-03     30.7555E-03
            3622               1     54.2909E-03     53.7396E-03     30.5167E-03     29.9725E-03
            3623               1     53.5302E-03     52.9857E-03     30.0464E-03     29.8374E-03
            3624               1     53.1822E-03     55.1470E-03     30.1830E-03     31.3191E-03
            3625               1     58.5164E-03     57.6643E-03     32.3346E-03     30.4233E-03
            3626               1     63.6184E-03     59.9627E-03     34.1940E-03     33.1611E-03
            3627               1     57.9793E-03     60.4536E-03     32.4570E-03     33.3010E-03
            3628               1     58.8172E-03     57.5624E-03     32.9919E-03     32.3323E-03
            3629               1     57.5241E-03     57.9634E-03     32.6050E-03     32.8056E-03
            3630               1     56.2295E-03     57.1052E-03     32.0800E-03     32.5770E-03
            3631               1     56.0823E-03     56.1539E-03     32.1707E-03     32.2083E-03
            3632               1     55.9171E-03     55.6848E-03     32.1614E-03     32.0519E-03
            3633               1     56.1301E-03     55.1185E-03     32.3792E-03     31.7582E-03
            3634               1     55.3575E-03     55.8625E-03     31.9354E-03     32.2486E-03
            3635               1     59.0229E-03     58.2338E-03     33.7230E-03     32.7532E-03
            3636               1     61.7366E-03     59.8436E-03     34.9716E-03     34.2503E-03
            3637               1     58.7660E-03     60.0995E-03     33.7847E-03     34.4213E-03
            3638               1     59.1124E-03     58.7278E-03     34.0363E-03     33.8324E-03
            3639               1     58.8699E-03     58.7058E-03     33.9742E-03     33.8788E-03
            3640               1     58.5264E-03     58.9716E-03     33.7900E-03     34.0408E-03
            3641               1     59.9945E-03     58.6171E-03     34.5476E-03     33.8233E-03
            3642               1     58.3876E-03     58.0369E-03     33.6707E-03     33.3232E-03
            3643               1     57.4889E-03     47.8153E-03     33.0363E-03     27.3417E-03
            3644               1     65.5376E-03     57.0561E-03     37.3825E-03     32.6025E-03
            3645               1     57.3567E-03     55.5919E-03     32.3595E-03     31.5100E-03
            3646               1     57.5075E-03     53.8477E-03     32.1203E-03     30.3750E-03
            3647               1     53.9441E-03     56.8263E-03     29.9710E-03     31.9759E-03
            3648               1     53.1810E-03     54.9380E-03     29.3354E-03     30.5625E-03
            3649               1     46.6029E-03     52.0961E-03     25.2316E-03     29.2321E-03
            3650               1     51.2019E-03     58.9909E-03     28.9030E-03     32.9323E-03
            3651               1     57.0025E-03     48.5577E-03     32.4750E-03     27.0778E-03
            3652               1     65.2233E-03     55.9044E-03     36.6896E-03     31.6409E-03
            3653               1     57.5813E-03     54.1666E-03     32.5482E-03     30.5278E-03
            3654               1     58.8249E-03     52.6016E-03     33.2060E-03     29.7830E-03
            3655               1     57.0693E-03     54.4494E-03     32.2936E-03     30.9708E-03
            3656               1     56.1818E-03     55.4064E-03     31.6288E-03     31.4327E-03
            3657               1     54.6934E-03     56.0921E-03     30.6233E-03     31.7972E-03
            3658               1     53.3327E-03     58.4559E-03     29.6154E-03     32.9090E-03
            3659               1     53.0357E-03     57.5211E-03     29.2513E-03     31.9330E-03
            3660               1     49.4447E-03     54.6949E-03     26.5508E-03     30.6128E-03
            3661               1     52.8805E-03     60.2379E-03     29.6684E-03     33.3354E-03
            3662               1     58.1084E-03     51.7182E-03     33.1354E-03     29.0189E-03
            3663               1     64.3962E-03     57.3140E-03     36.2891E-03     32.5292E-03
            3664               1     58.2743E-03     56.1197E-03     33.1065E-03     31.7750E-03
            3665               1     59.4481E-03     55.0269E-03     33.7393E-03     31.3116E-03
            3666               1     58.1977E-03     56.3370E-03     33.1084E-03     32.1500E-03
            3667               1     57.6413E-03     57.0382E-03     32.7078E-03     32.5067E-03
            3668               1     56.4576E-03     57.4597E-03     31.9290E-03     32.7348E-03
            3669               1     55.4028E-03     59.0652E-03     31.2179E-03     33.5140E-03
            3670               1     54.8098E-03     58.2489E-03     30.7650E-03     32.7742E-03
            3671               1     52.4735E-03     56.1554E-03     29.1469E-03     31.8130E-03
            3672               1     54.8502E-03     59.3665E-03     31.1283E-03     33.3963E-03
            3673               1     59.5851E-03     55.0557E-03     34.2074E-03     31.4135E-03
            3674               1     63.3557E-03     59.0615E-03     36.1441E-03     33.8461E-03
            3675               1     59.4381E-03     58.3892E-03     34.0900E-03     33.4458E-03
            3676               1     60.0520E-03     58.1301E-03     34.4076E-03     33.3714E-03
            3677               1     59.5866E-03     58.8982E-03     34.1823E-03     33.8140E-03
            3678               1     58.9154E-03     59.1180E-03     33.7094E-03     33.9364E-03
            3679               1     57.6755E-03     59.6861E-03     33.0136E-03     34.2064E-03
            3680               1     57.4048E-03     58.9892E-03     32.8035E-03     33.7364E-03
            3681               1     55.8546E-03     57.9854E-03     31.9100E-03     33.2625E-03
            3682               1     57.3041E-03     58.6428E-03     32.9086E-03     33.5892E-03
            3683               1     61.5206E-03     58.8617E-03     35.4998E-03     33.9459E-03
            3684               1     62.9776E-03     61.1737E-03     36.3008E-03     35.2968E-03
            3685               1     61.0544E-03     61.2295E-03     35.2332E-03     35.3308E-03
            3686               1     61.4084E-03     61.3624E-03     35.4160E-03     35.4094E-03
            3687               1     61.0042E-03     61.6514E-03     35.1975E-03     35.5647E-03
            3688               1     60.5623E-03     61.1116E-03     34.9228E-03     35.2433E-03
            3689               1     60.7647E-03     60.5808E-03     35.0668E-03     34.9558E-03
            3690               1     60.7709E-03     59.7782E-03     35.0703E-03     34.4953E-03
            3691               1     76.8235E-03     87.4889E-03     30.4807E-03     21.1791E-03
            3692               1     96.0477E-03     69.3806E-03     33.6790E-03     26.5502E-03
            3693               1     72.3778E-03     80.9166E-03     29.2709E-03     29.1778E-03
            3694               1     74.8356E-03     70.0127E-03     31.1002E-03     28.3074E-03
            3695               1     75.4506E-03     74.4805E-03     31.6668E-03     33.0260E-03
            3696               1     73.3564E-03     82.4260E-03     32.2057E-03     33.5427E-03
            3697               1     85.9934E-03     77.6804E-03     28.9957E-03     35.2728E-03
            3698               1     71.3117E-03     96.6757E-03     29.6936E-03     38.5322E-03
            3699               1     74.2921E-03     86.6187E-03     28.4321E-03     20.8441E-03
            3700               1     92.6735E-03     69.2110E-03     31.4868E-03     25.6881E-03
            3701               1     69.6920E-03     78.8593E-03     27.3328E-03     27.6966E-03
            3702               1     70.1660E-03     68.0009E-03     29.4577E-03     26.7489E-03
            3703               1     70.2126E-03     68.5890E-03     30.2104E-03     29.2185E-03
            3704               1     66.2858E-03     69.4499E-03     30.5438E-03     30.1170E-03
            3705               1     69.3247E-03     68.1248E-03     32.0025E-03     31.1522E-03
            3706               1     68.5143E-03     71.0039E-03     31.9354E-03     33.7366E-03
            3707               1     70.1043E-03     76.9197E-03     33.4136E-03     34.5781E-03
            3708               1     78.4102E-03     75.0389E-03     30.0939E-03     36.0508E-03
            3709               1     67.7811E-03     88.6139E-03     30.9140E-03     37.9082E-03
            3710               1     67.7825E-03     75.3067E-03     29.4228E-03     23.9279E-03
            3711               1     81.4212E-03     64.1615E-03     31.9453E-03     27.8707E-03
            3712               1     64.6482E-03     71.4230E-03     28.8733E-03     29.4216E-03
            3713               1     65.0664E-03     63.0678E-03     30.4865E-03     28.4214E-03
            3714               1     65.1197E-03     63.3710E-03     31.1746E-03     30.1632E-03
            3715               1     61.9026E-03     63.4488E-03     31.1984E-03     30.7546E-03
            3716               1     63.8074E-03     62.4247E-03     32.4431E-03     31.5233E-03
            3717               1     62.7484E-03     64.3076E-03     32.2361E-03     33.3491E-03
            3718               1     63.5015E-03     67.7438E-03     33.1820E-03     34.2627E-03
            3719               1     66.4582E-03     67.1800E-03     30.9631E-03     35.1927E-03
            3720               1     60.5820E-03     73.4741E-03     31.1757E-03     35.9776E-03
            3721               1     61.4094E-03     63.8638E-03     30.9667E-03     27.6470E-03
            3722               1     69.4039E-03     59.5324E-03     32.9699E-03     30.5165E-03
            3723               1     59.9164E-03     63.9076E-03     31.0021E-03     31.7066E-03
            3724               1     60.6425E-03     58.3197E-03     32.1902E-03     30.5453E-03
            3725               1     60.5065E-03     59.1218E-03     32.6293E-03     31.8782E-03
            3726               1     58.9755E-03     58.6415E-03     32.5824E-03     32.0234E-03
            3727               1     59.4836E-03     58.8132E-03     33.0884E-03     32.9081E-03
            3728               1     58.5644E-03     61.2450E-03     32.8981E-03     34.1651E-03
            3729               1     58.4422E-03     60.7424E-03     32.1051E-03     34.1910E-03
            3730               1     56.0445E-03     61.5297E-03     31.5941E-03     34.2376E-03
            3731               1     58.2152E-03     57.9830E-03     32.6764E-03     31.3833E-03
            3732               1     61.9616E-03     58.4770E-03     34.3575E-03     33.1509E-03
            3733               1     58.5492E-03     60.2708E-03     33.2597E-03     33.9989E-03
            3734               1     59.6454E-03     57.9101E-03     34.1996E-03     33.1044E-03
            3735               1     59.6399E-03     58.3122E-03     34.2637E-03     33.5876E-03
            3736               1     58.1590E-03     59.6767E-03     33.5575E-03     34.4326E-03
            3737               1     58.7168E-03     58.9999E-03     33.8897E-03     34.0469E-03
            3738               1     56.4759E-03     57.4776E-03     32.5918E-03     33.1465E-03
            3739               1     97.5523E-03     135.294E-03     10.5281E-03     10.5853E-03
            3740               1     134.271E-03     105.735E-03     17.1140E-03     18.6395E-03
            3741               1     91.8670E-03     120.341E-03     20.3467E-03     21.5438E-03
            3742               1     103.505E-03     104.348E-03     26.8125E-03     26.3017E-03
            3743               1     102.034E-03     103.952E-03     29.1626E-03     28.9654E-03
            3744               1     96.8562E-03     114.475E-03     35.6954E-03     34.1962E-03
            3745               1     125.731E-03     108.528E-03     41.0340E-03     39.9818E-03
            3746               1     113.896E-03     134.350E-03     47.6513E-03     46.2570E-03
            3747               1     92.6856E-03     127.280E-03     10.9361E-03     11.1195E-03
            3748               1     126.968E-03     100.419E-03     15.9927E-03     18.1306E-03
            3749               1     87.6160E-03     113.537E-03     18.4478E-03     19.8352E-03
            3750               1     94.0719E-03     95.7485E-03     22.4300E-03     23.0474E-03
            3751               1     89.6655E-03     96.4055E-03     23.7607E-03     24.7866E-03
            3752               1     85.2125E-03     93.0291E-03     26.9552E-03     26.2808E-03
            3753               1     87.1116E-03     91.7725E-03     29.4156E-03     28.9570E-03
            3754               1     88.1221E-03     88.3200E-03     32.5153E-03     30.3850E-03
            3755               1     86.3028E-03     97.5325E-03     36.2918E-03     35.0845E-03
            3756               1     107.574E-03     95.0005E-03     41.5201E-03     39.6474E-03
            3757               1     101.433E-03     115.570E-03     46.4770E-03     44.9307E-03
            3758               1     77.1264E-03     103.311E-03     16.2964E-03     16.2536E-03
            3759               1     104.700E-03     83.9835E-03     19.9260E-03     21.5136E-03
            3760               1     73.9498E-03     93.3385E-03     21.2360E-03     22.1898E-03
            3761               1     78.1623E-03     78.7918E-03     24.1038E-03     24.2603E-03
            3762               1     73.6606E-03     78.3499E-03     24.7058E-03     25.5187E-03
            3763               1     70.1011E-03     74.7005E-03     27.1244E-03     26.3814E-03
            3764               1     70.3783E-03     73.1823E-03     28.7004E-03     28.4662E-03
            3765               1     70.9630E-03     70.3886E-03     31.2094E-03     29.4241E-03
            3766               1     70.3582E-03     75.4301E-03     33.8107E-03     32.9739E-03
            3767               1     82.3305E-03     76.1193E-03     37.9844E-03     36.7166E-03
            3768               1     81.6533E-03     87.7144E-03     41.4308E-03     40.1260E-03
            3769               1     61.8983E-03     77.5641E-03     22.3114E-03     22.0036E-03
            3770               1     79.9240E-03     66.9282E-03     24.4808E-03     25.4447E-03
            3771               1     59.7771E-03     70.8132E-03     24.6182E-03     25.0198E-03
            3772               1     61.5594E-03     61.1597E-03     26.4266E-03     26.1193E-03
            3773               1     57.7033E-03     59.4578E-03     26.4795E-03     26.6754E-03
            3774               1     56.0945E-03     57.4584E-03     28.2266E-03     27.6103E-03
            3775               1     56.8077E-03     55.8067E-03     29.5064E-03     28.6621E-03
            3776               1     57.1549E-03     57.2535E-03     31.2309E-03     30.5234E-03
            3777               1     61.9708E-03     61.0013E-03     34.1702E-03     33.7586E-03
            3778               1     64.2910E-03     63.9576E-03     36.0296E-03     34.9968E-03
            3779               1     53.7388E-03     58.5954E-03     27.9058E-03     27.3131E-03
            3780               1     60.3842E-03     55.7612E-03     28.6562E-03     29.1613E-03
            3781               1     51.4786E-03     53.8803E-03     27.9290E-03     27.6813E-03
            3782               1     51.1444E-03     50.2036E-03     28.5353E-03     28.0143E-03
            3783               1     50.3315E-03     49.7158E-03     28.7602E-03     28.2773E-03
            3784               1     51.2961E-03     50.2592E-03     29.4920E-03     28.9835E-03
            3785               1     54.6131E-03     54.4272E-03     31.1072E-03     31.3426E-03
            3786               1     55.0891E-03     54.2628E-03     31.7115E-03     30.9469E-03
            3787               1     136.169E-03     160.180E-03    -12.3649E-03    -3.15031E-03
            3788               1     153.966E-03     126.931E-03    -1.83372E-03     5.08738E-03
            3789               1     127.509E-03     142.335E-03     15.3413E-03     13.9339E-03
            3790               1     130.962E-03     126.470E-03     17.2605E-03     20.6577E-03
            3791               1     128.223E-03     124.947E-03     26.4086E-03     23.7235E-03
            3792               1     121.037E-03     127.459E-03     30.0509E-03     30.0084E-03
            3793               1     140.428E-03     119.735E-03     47.2340E-03     39.9565E-03
            3794               1     134.025E-03     134.886E-03     57.2349E-03     49.2152E-03
            3795               1     127.134E-03     149.964E-03    -9.90562E-03    -1.93246E-03
            3796               1     143.488E-03     118.082E-03    -1.54533E-03     4.16826E-03
            3797               1     116.189E-03     130.758E-03     12.7461E-03     11.4479E-03
            3798               1     118.993E-03     113.879E-03     12.9703E-03     16.3869E-03
            3799               1     111.239E-03     112.752E-03     17.9140E-03     18.0270E-03
            3800               1     108.302E-03     107.413E-03     20.8161E-03     21.3531E-03
            3801               1     104.179E-03     103.718E-03     23.8728E-03     23.7614E-03
            3802               1     104.213E-03     99.6960E-03     29.0044E-03     26.8957E-03
            3803               1     98.7380E-03     101.723E-03     31.8412E-03     30.7979E-03
            3804               1     115.332E-03     99.0298E-03     45.8887E-03     39.4791E-03
            3805               1     112.055E-03     109.637E-03     53.0797E-03     46.3915E-03
            3806               1     102.456E-03     122.516E-03    -1.33857E-03     4.61910E-03
            3807               1     115.021E-03     94.9882E-03     4.78037E-03     8.72824E-03
            3808               1     92.1549E-03     103.985E-03     15.1913E-03     13.7550E-03
            3809               1     92.7026E-03     89.0239E-03     14.8228E-03     17.4807E-03
            3810               1     85.2910E-03     86.6599E-03     18.3293E-03     18.3711E-03
            3811               1     81.6506E-03     81.2337E-03     20.3448E-03     20.8881E-03
            3812               1     77.3931E-03     76.7754E-03     22.5172E-03     22.4240E-03
            3813               1     76.0042E-03     73.3910E-03     26.1443E-03     24.8697E-03
            3814               1     72.5143E-03     72.3460E-03     28.5984E-03     27.4470E-03
            3815               1     82.6217E-03     72.8178E-03     38.4072E-03     33.7783E-03
            3816               1     82.7694E-03     78.1803E-03     43.3897E-03     38.8861E-03
            3817               1     75.1074E-03     91.2063E-03     8.09366E-03     11.8732E-03
            3818               1     82.3895E-03     68.8410E-03     11.7638E-03     13.9257E-03
            3819               1     65.1926E-03     73.1857E-03     17.9836E-03     16.5675E-03
            3820               1     62.8236E-03     60.8350E-03     17.2383E-03     19.0026E-03
            3821               1     56.7155E-03     57.9494E-03     19.4219E-03     19.4030E-03
            3822               1     53.1016E-03     52.3944E-03     20.7576E-03     20.9625E-03
            3823               1     50.2567E-03     49.9293E-03     22.7382E-03     22.3238E-03
            3824               1     49.5398E-03     47.0577E-03     24.8843E-03     23.7788E-03
            3825               1     54.3115E-03     50.2782E-03     30.2367E-03     27.4760E-03
            3826               1     57.6616E-03     53.9414E-03     33.1498E-03     30.9846E-03
            3827               1     52.0474E-03     62.4789E-03     16.7448E-03     18.4961E-03
            3828               1     52.7513E-03     45.9959E-03     17.8416E-03     18.4060E-03
            3829               1     42.1799E-03     45.0099E-03     20.1652E-03     18.9763E-03
            3830               1     38.2999E-03     37.8716E-03     19.2123E-03     19.9622E-03
            3831               1     35.8256E-03     36.6291E-03     20.1592E-03     20.2626E-03
            3832               1     37.5348E-03     35.9511E-03     21.6370E-03     20.6388E-03
            3833               1     42.0010E-03     39.5978E-03     22.9205E-03     22.0312E-03
            3834               1     45.5894E-03     48.4124E-03     23.9689E-03     23.9081E-03
            3947               1     244.430E-03     264.568E-03    -45.3740E-03    -44.0656E-03
            3948               1     281.899E-03     299.410E-03    -47.0764E-03    -50.0292E-03
            3949               1     262.534E-03     251.739E-03    -39.3076E-03    -39.6229E-03
            3950               1     280.244E-03     265.733E-03    -55.3680E-03    -50.6262E-03
            3951               1     237.099E-03     252.512E-03    -31.1857E-03    -34.4505E-03
            3952               1     293.563E-03     319.401E-03    -31.3553E-03    -37.5795E-03
            3953               1     265.239E-03     271.191E-03    -36.1670E-03    -36.0015E-03
            3954               1     306.941E-03     289.555E-03    -50.3468E-03    -47.8817E-03
            3955               1     272.766E-03     270.155E-03    -51.8900E-03    -49.0687E-03
            3956               1     289.111E-03     301.013E-03    -61.0738E-03    -58.0053E-03
            3957               1     266.462E-03     265.689E-03    -58.1736E-03    -57.8325E-03
            3958               1     290.973E-03     278.338E-03    -72.4131E-03    -70.6233E-03
            3959               1     252.649E-03     245.708E-03    -64.7410E-03    -62.0982E-03
            3960               1     270.523E-03     269.040E-03    -73.6872E-03    -70.1979E-03
            3961               1     34.4107E-03     36.1994E-03    -19.8290E-03    -19.6279E-03
            3962               1     34.9356E-03     37.1592E-03    -20.0238E-03    -19.9977E-03
            3963               1     42.9565E-03     35.6978E-03    -20.2174E-03    -20.0152E-03
            3964               1     38.1863E-03     47.9983E-03    -19.7660E-03    -19.4666E-03
            3965               1     33.5061E-03     32.2512E-03    -18.8024E-03    -18.4439E-03
            3966               1     33.5708E-03     34.9478E-03    -18.5907E-03    -18.2945E-03
            3967               1     39.5650E-03     38.2731E-03    -18.8604E-03    -18.4806E-03
            3968               1     46.1255E-03     45.5389E-03    -18.5128E-03    -18.3413E-03
            3969               1     53.4965E-03     53.3628E-03    -18.6467E-03    -18.4681E-03
            3970               1     60.9938E-03     62.9255E-03    -18.3217E-03    -18.4927E-03
            3971               1     72.5326E-03     71.0198E-03    -18.4253E-03    -18.6746E-03
            3972               1     79.6619E-03     79.0016E-03    -18.4007E-03    -18.4320E-03
            3973               1     84.8379E-03     99.0979E-03    -18.2225E-03    -18.7033E-03
            3974               1     116.960E-03     88.2927E-03    -19.0512E-03    -18.7736E-03
            3975               1     88.7654E-03     115.315E-03    -18.1831E-03    -17.4123E-03
            3976               1     68.6287E-03     67.5699E-03    -17.6237E-03    -17.5489E-03
            3977               1     86.4468E-03     78.0174E-03    -17.1078E-03    -17.0096E-03
            3978               1     88.2296E-03     93.9897E-03    -17.6771E-03    -16.8756E-03
            3979               1     101.554E-03     99.2187E-03    -17.3557E-03    -17.2599E-03
            3980               1     109.532E-03     112.470E-03    -17.1152E-03    -16.8771E-03
            3981               1     122.932E-03     120.951E-03    -17.0652E-03    -17.4017E-03
            3982               1     130.442E-03     128.699E-03    -16.8251E-03    -16.8984E-03
            3983               1     133.504E-03     155.153E-03    -16.6305E-03    -17.4371E-03
            3984               1     177.440E-03     135.057E-03    -17.6528E-03    -17.4806E-03
            3985               1     132.735E-03     169.245E-03    -16.5380E-03    -15.6488E-03
            3986               1     113.098E-03     120.773E-03    -16.4090E-03    -16.5499E-03
            3987               1     147.963E-03     126.368E-03    -15.4777E-03    -15.4491E-03
            3988               1     139.352E-03     152.424E-03    -16.4343E-03    -15.2835E-03
            3989               1     155.978E-03     152.575E-03    -15.9968E-03    -15.9039E-03
            3990               1     164.453E-03     167.714E-03    -15.6481E-03    -15.2955E-03
            3991               1     178.190E-03     176.419E-03    -15.5828E-03    -16.0678E-03
            3992               1     185.761E-03     182.933E-03    -15.2375E-03    -15.3488E-03
            3993               1     186.077E-03     215.127E-03    -14.9548E-03    -16.0886E-03
            3994               1     241.343E-03     185.363E-03    -16.2852E-03    -16.1145E-03
            3995               1     179.847E-03     225.955E-03    -14.8377E-03    -13.8354E-03
            3996               1     54.1869E-03     54.7004E-03    -31.2619E-03    -31.0045E-03
            3997               1     55.0450E-03     55.8254E-03    -31.7202E-03    -31.5352E-03
            3998               1     59.3011E-03     55.1664E-03    -31.8080E-03    -31.5456E-03
            3999               1     56.0368E-03     60.9503E-03    -31.2466E-03    -30.8261E-03
            4000               1     49.7210E-03     48.8954E-03    -28.3799E-03    -28.1543E-03
            4001               1     51.7001E-03     51.3927E-03    -29.4146E-03    -28.6929E-03
            4002               1     53.3931E-03     53.0954E-03    -28.6578E-03    -28.7196E-03
            4003               1     57.5663E-03     57.1858E-03    -28.9314E-03    -28.8263E-03
            4004               1     61.8757E-03     62.2517E-03    -28.7876E-03    -29.0368E-03
            4005               1     67.1317E-03     68.8261E-03    -28.8612E-03    -29.1961E-03
            4006               1     75.2950E-03     74.4050E-03    -29.0348E-03    -29.1699E-03
            4007               1     80.8790E-03     80.1768E-03    -29.1328E-03    -28.8597E-03
            4008               1     83.8889E-03     95.0151E-03    -28.8292E-03    -29.2141E-03
            4009               1     109.483E-03     86.7941E-03    -29.9354E-03    -29.0113E-03
            4010               1     86.8379E-03     106.350E-03    -28.8193E-03    -27.5212E-03
            4011               1     71.8368E-03     71.9721E-03    -27.4222E-03    -27.8653E-03
            4012               1     85.7430E-03     78.7425E-03    -27.9884E-03    -27.3485E-03
            4013               1     86.5764E-03     91.2468E-03    -27.7664E-03    -27.7657E-03
            4014               1     96.4142E-03     94.6554E-03    -27.7470E-03    -27.6008E-03
            4015               1     103.265E-03     105.651E-03    -27.7301E-03    -28.1755E-03
            4016               1     113.841E-03     112.732E-03    -27.9500E-03    -28.0672E-03
            4017               1     121.043E-03     119.246E-03    -28.2629E-03    -27.9964E-03
            4018               1     122.573E-03     141.122E-03    -27.6890E-03    -28.3825E-03
            4019               1     160.116E-03     124.528E-03    -29.2174E-03    -28.2426E-03
            4020               1     122.505E-03     151.959E-03    -27.9227E-03    -26.2461E-03
            4021               1     106.253E-03     113.572E-03    -25.9928E-03    -26.9541E-03
            4022               1     135.303E-03     117.061E-03    -26.3621E-03    -25.8401E-03
            4023               1     127.812E-03     138.899E-03    -26.4699E-03    -26.3175E-03
            4024               1     141.128E-03     138.373E-03    -26.3051E-03    -26.1911E-03
            4025               1     148.769E-03     151.515E-03    -26.3687E-03    -26.8782E-03
            4026               1     160.289E-03     159.175E-03    -26.6621E-03    -26.6956E-03
            4027               1     167.844E-03     165.153E-03    -27.0290E-03    -26.7824E-03
            4028               1     167.357E-03     192.884E-03    -26.3297E-03    -27.1563E-03
            4029               1     215.718E-03     167.490E-03    -28.0931E-03    -27.0944E-03
            4030               1     162.828E-03     201.612E-03    -26.7263E-03    -24.6315E-03
            4031               1     70.7559E-03     70.1850E-03    -40.8333E-03    -40.2998E-03
            4032               1     71.2010E-03     71.6152E-03    -41.0717E-03    -40.9715E-03
            4033               1     73.4640E-03     71.2678E-03    -41.2470E-03    -40.9779E-03
            4034               1     71.5710E-03     73.2532E-03    -40.7426E-03    -40.0960E-03
            4035               1     64.5820E-03     63.8612E-03    -36.9940E-03    -36.8466E-03
            4036               1     64.2426E-03     65.3780E-03    -36.6364E-03    -37.0145E-03
            4037               1     66.2560E-03     67.0350E-03    -36.9482E-03    -37.4072E-03
            4038               1     69.0410E-03     69.4118E-03    -37.1596E-03    -37.4724E-03
            4039               1     72.1873E-03     72.2928E-03    -37.6417E-03    -37.4915E-03
            4040               1     75.3644E-03     75.4557E-03    -37.7605E-03    -37.2954E-03
            4041               1     80.0909E-03     78.6970E-03    -37.8738E-03    -37.4126E-03
            4042               1     82.9361E-03     81.5223E-03    -37.8655E-03    -36.9979E-03
            4043               1     84.2811E-03     90.8999E-03    -37.1529E-03    -37.3798E-03
            4044               1     100.558E-03     85.2795E-03    -38.2594E-03    -37.3230E-03
            4045               1     84.9013E-03     95.9316E-03    -36.9123E-03    -35.3166E-03
            4046               1     77.8316E-03     78.4177E-03    -36.3645E-03    -36.9313E-03
            4047               1     86.2798E-03     82.8425E-03    -35.4529E-03    -36.4634E-03
            4048               1     86.8469E-03     91.0549E-03    -36.2889E-03    -36.5793E-03
            4049               1     94.8946E-03     94.5552E-03    -36.4838E-03    -37.2474E-03
            4050               1     99.5293E-03     101.771E-03    -36.8297E-03    -36.7151E-03
            4051               1     107.877E-03     106.432E-03    -37.5005E-03    -37.0166E-03
            4052               1     111.902E-03     110.008E-03    -37.4394E-03    -36.3114E-03
            4053               1     112.736E-03     125.264E-03    -36.9456E-03    -36.9648E-03
            4054               1     139.778E-03     113.033E-03    -38.4305E-03    -37.0003E-03
            4055               1     110.757E-03     130.150E-03    -36.4963E-03    -34.1895E-03
            4056               1     101.590E-03     107.419E-03    -35.3119E-03    -36.5587E-03
            4057               1     122.908E-03     110.313E-03    -33.7486E-03    -35.2985E-03
            4058               1     116.977E-03     126.440E-03    -35.1163E-03    -35.4197E-03
            4059               1     128.790E-03     127.696E-03    -35.2287E-03    -36.3936E-03
            4060               1     134.418E-03     137.512E-03    -35.6006E-03    -35.5588E-03
            4061               1     144.175E-03     143.043E-03    -36.5850E-03    -36.0289E-03
            4062               1     148.876E-03     146.189E-03    -36.5750E-03    -35.0291E-03
            4063               1     147.904E-03     166.685E-03    -36.0125E-03    -36.0241E-03
            4064               1     185.252E-03     146.979E-03    -37.9511E-03    -36.0689E-03
            4065               1     142.185E-03     169.996E-03    -35.4098E-03    -32.5486E-03
            4066               1     81.2047E-03     80.5821E-03    -46.8571E-03    -46.4891E-03
            4067               1     83.0641E-03     82.8111E-03    -47.9439E-03    -47.6419E-03
            4068               1     84.3532E-03     82.8316E-03    -48.1449E-03    -47.7131E-03
            4069               1     81.5912E-03     81.7355E-03    -46.8560E-03    -46.3083E-03
            4070               1     73.8203E-03     75.1282E-03    -42.2302E-03    -43.2755E-03
            4071               1     76.2760E-03     77.9084E-03    -43.5548E-03    -44.2962E-03
            4072               1     77.1613E-03     78.5201E-03    -43.2789E-03    -44.1025E-03
            4073               1     78.9717E-03     78.5448E-03    -43.6490E-03    -43.2817E-03
            4074               1     80.4581E-03     78.4615E-03    -43.7498E-03    -42.5812E-03
            4075               1     80.9307E-03     80.0059E-03    -43.3871E-03    -42.6162E-03
            4076               1     83.0335E-03     80.3821E-03    -43.5802E-03    -42.2352E-03
            4077               1     83.7260E-03     81.4932E-03    -43.3419E-03    -42.2694E-03
            4078               1     83.3208E-03     86.5677E-03    -42.7812E-03    -42.9206E-03
            4079               1     92.5438E-03     83.6776E-03    -43.7944E-03    -43.0546E-03
            4080               1     82.1677E-03     87.3609E-03    -41.9396E-03    -41.0906E-03
            4081               1     83.0113E-03     85.2182E-03    -42.4354E-03    -44.3484E-03
            4082               1     89.4208E-03     88.5635E-03    -43.0935E-03    -44.3383E-03
            4083               1     91.4601E-03     95.0487E-03    -43.5320E-03    -44.5881E-03
            4084               1     95.4593E-03     94.8841E-03    -43.5425E-03    -43.2799E-03
            4085               1     98.5086E-03     98.0085E-03    -43.7096E-03    -42.8633E-03
            4086               1     101.482E-03     99.4053E-03    -43.3229E-03    -42.3813E-03
            4087               1     103.216E-03     100.128E-03    -43.4669E-03    -41.7952E-03
            4088               1     101.896E-03     108.843E-03    -42.5421E-03    -42.3507E-03
            4089               1     118.466E-03     99.9916E-03    -44.1221E-03    -42.4255E-03
            4090               1     98.5926E-03     108.612E-03    -41.8919E-03    -40.1060E-03
            4091               1     98.4943E-03     103.362E-03    -41.9276E-03    -44.6152E-03
            4092               1     113.175E-03     106.292E-03    -42.1862E-03    -44.0354E-03
            4093               1     112.693E-03     119.680E-03    -43.0686E-03    -44.3681E-03
            4094               1     119.298E-03     118.683E-03    -42.8379E-03    -42.9317E-03
            4095               1     123.826E-03     123.843E-03    -43.1256E-03    -42.3223E-03
            4096               1     127.987E-03     125.845E-03    -42.5296E-03    -41.6004E-03
            4097               1     129.900E-03     126.478E-03    -42.7925E-03    -40.8541E-03
            4098               1     127.452E-03     138.934E-03    -41.7035E-03    -41.1478E-03
            4099               1     151.546E-03     122.997E-03    -43.6779E-03    -41.4085E-03
            4100               1     120.716E-03     136.989E-03    -41.1445E-03    -38.6654E-03
            4101               1     88.2174E-03     86.0743E-03    -50.8969E-03    -49.6734E-03
            4102               1     87.6695E-03     88.2996E-03    -50.5041E-03    -50.9134E-03
            4103               1     87.7214E-03     88.1326E-03    -50.5637E-03    -50.7969E-03
            4104               1     88.2159E-03     85.8881E-03    -50.8484E-03    -49.4297E-03
            4105               1     88.3985E-03     85.6232E-03    -50.5068E-03    -49.1271E-03
            4106               1     87.9036E-03     86.3794E-03    -49.4192E-03    -48.9147E-03
            4107               1     84.6879E-03     84.6964E-03    -47.3897E-03    -47.3963E-03
            4108               1     83.6189E-03     81.7450E-03    -46.4829E-03    -45.6438E-03
            4109               1     82.0702E-03     81.8405E-03    -45.4764E-03    -45.6204E-03
            4110               1     80.9218E-03     80.3302E-03    -44.9006E-03    -44.5973E-03
            4111               1     80.9257E-03     81.0682E-03    -44.7818E-03    -45.1242E-03
            4112               1     80.9423E-03     79.9507E-03    -44.8950E-03    -44.4017E-03
            4113               1     80.3092E-03     82.8050E-03    -44.6591E-03    -45.7160E-03
            4114               1     85.5679E-03     82.8847E-03    -46.7229E-03    -46.3055E-03
            4115               1     83.4834E-03     82.1118E-03    -46.5976E-03    -44.7264E-03
            4116               1     95.6753E-03     93.7601E-03    -52.0477E-03    -51.0476E-03
            4117               1     99.5089E-03     94.9913E-03    -50.6420E-03    -50.2149E-03
            4118               1     95.1827E-03     95.4173E-03    -48.6152E-03    -48.1178E-03
            4119               1     95.3592E-03     92.5429E-03    -47.4882E-03    -46.6019E-03
            4120               1     93.1070E-03     92.3746E-03    -45.7047E-03    -45.9356E-03
            4121               1     93.2352E-03     92.0696E-03    -45.5161E-03    -45.4097E-03
            4122               1     91.9998E-03     90.4574E-03    -44.6944E-03    -44.6116E-03
            4123               1     89.5446E-03     94.6264E-03    -43.9113E-03    -45.4290E-03
            4124               1     98.2892E-03     90.1963E-03    -45.8155E-03    -45.3906E-03
            4125               1     89.0865E-03     90.6012E-03    -45.1224E-03    -43.0058E-03
            4126               1     105.967E-03     105.685E-03    -53.1605E-03    -52.4778E-03
            4127               1     116.509E-03     107.057E-03    -51.3256E-03    -50.9192E-03
            4128               1     110.157E-03     111.751E-03    -49.4284E-03    -48.4886E-03
            4129               1     112.199E-03     107.974E-03    -47.9281E-03    -46.8903E-03
            4130               1     110.149E-03     108.783E-03    -45.5477E-03    -45.9304E-03
            4131               1     111.040E-03     108.850E-03    -45.3988E-03    -45.2017E-03
            4132               1     109.398E-03     106.699E-03    -43.9124E-03    -44.0594E-03
            4133               1     105.235E-03     113.797E-03    -42.7806E-03    -44.8277E-03
            4134               1     119.715E-03     103.736E-03    -44.7332E-03    -44.2220E-03
            4135               1     100.736E-03     106.725E-03    -43.6834E-03    -41.2420E-03
            4136               1     81.8867E-03     83.1620E-03    -46.8633E-03    -47.3826E-03
            4137               1     83.7557E-03     82.3667E-03    -48.1509E-03    -47.4560E-03
            4138               1     84.1524E-03     82.5921E-03    -48.5755E-03    -47.6528E-03
            4139               1     81.6581E-03     82.4879E-03    -47.0680E-03    -47.4663E-03
            4140               1     88.2721E-03     88.1561E-03    -49.1043E-03    -48.6535E-03
            4141               1     90.3834E-03     87.2574E-03    -50.4017E-03    -48.7132E-03
            4142               1     84.0397E-03     83.1303E-03    -47.5636E-03    -46.3083E-03
            4143               1     81.3718E-03     81.8904E-03    -45.9004E-03    -46.2232E-03
            4144               1     78.7361E-03     79.2019E-03    -44.6416E-03    -44.7061E-03
            4145               1     77.3139E-03     78.6310E-03    -43.9435E-03    -44.6947E-03
            4146               1     76.3776E-03     77.1289E-03    -43.5451E-03    -44.0366E-03
            4147               1     76.5394E-03     77.3821E-03    -43.8177E-03    -44.3381E-03
            4148               1     76.3185E-03     77.1535E-03    -43.7955E-03    -44.3501E-03
            4149               1     81.0162E-03     80.2252E-03    -46.6290E-03    -46.2002E-03
            4150               1     78.7018E-03     77.9137E-03    -45.3936E-03    -44.9427E-03
            4151               1     95.6483E-03     96.7352E-03    -50.8658E-03    -50.6610E-03
            4152               1     98.4404E-03     93.2628E-03    -52.0886E-03    -49.9658E-03
            4153               1     91.5569E-03     90.8274E-03    -49.7830E-03    -47.7925E-03
            4154               1     88.0775E-03     88.0525E-03    -47.2702E-03    -47.4740E-03
            4155               1     84.9180E-03     85.8224E-03    -45.7023E-03    -45.8195E-03
            4156               1     82.7543E-03     83.7253E-03    -44.6601E-03    -45.2994E-03
            4157               1     81.6492E-03     82.1305E-03    -44.1490E-03    -44.6576E-03
            4158               1     78.6293E-03     81.7151E-03    -42.9152E-03    -44.5637E-03
            4159               1     84.4801E-03     82.9314E-03    -45.9787E-03    -46.2872E-03
            4160               1     80.4182E-03     80.2001E-03    -44.6700E-03    -44.1236E-03
            4161               1     104.659E-03     107.289E-03    -52.0418E-03    -52.0866E-03
            4162               1     109.495E-03     101.515E-03    -53.5327E-03    -50.9648E-03
            4163               1     101.419E-03     101.439E-03    -51.7277E-03    -48.8815E-03
            4164               1     98.0778E-03     97.5292E-03    -48.3895E-03    -48.5668E-03
            4165               1     94.4776E-03     95.6405E-03    -46.4090E-03    -46.3989E-03
            4166               1     91.8625E-03     93.1993E-03    -44.9296E-03    -45.7293E-03
            4167               1     90.7256E-03     90.3986E-03    -44.0667E-03    -44.5368E-03
            4168               1     85.2751E-03     91.3149E-03    -41.8083E-03    -44.5364E-03
            4169               1     94.8604E-03     90.0505E-03    -45.6925E-03    -46.4343E-03
            4170               1     88.4514E-03     89.7314E-03    -44.5803E-03    -43.6310E-03
            4171               1     75.4376E-03     76.1685E-03    -41.0227E-03    -41.5117E-03
            4172               1     74.3976E-03     72.9641E-03    -42.6060E-03    -41.8045E-03
            4173               1     83.3623E-03     83.6567E-03    -45.5561E-03    -46.4620E-03
            4174               1     79.8807E-03     79.8275E-03    -45.2651E-03    -45.5238E-03
            4175               1     87.5804E-03     87.9274E-03    -48.0912E-03    -48.2722E-03
            4176               1     84.2101E-03     84.9210E-03    -47.6795E-03    -48.2408E-03
            4177               1     94.1003E-03     93.6896E-03    -51.7098E-03    -51.7703E-03
            4178               1     89.6615E-03     89.0434E-03    -50.7178E-03    -50.4680E-03
            4179               1     99.7083E-03     99.2614E-03    -54.7314E-03    -54.5538E-03
            4180               1     94.3929E-03     94.2517E-03    -53.4268E-03    -53.4323E-03
            4181               1     104.874E-03     103.837E-03    -57.7329E-03    -57.1789E-03
            4182               1     100.569E-03     99.3347E-03    -56.8033E-03    -56.2045E-03
            4183               1     111.332E-03     109.861E-03    -61.0449E-03    -60.4452E-03
            4184               1     103.954E-03     103.305E-03    -58.6469E-03    -58.3482E-03
            4185               1     114.872E-03     113.109E-03    -63.1513E-03    -61.8620E-03
            4186               1     108.821E-03     107.266E-03    -61.1122E-03    -60.5029E-03
            4187               1     121.514E-03     117.673E-03    -65.7624E-03    -64.4974E-03
            4188               1     105.080E-03     107.306E-03    -58.9903E-03    -60.3160E-03
            4189               1     113.511E-03     119.677E-03    -61.1398E-03    -63.2240E-03
            4190               1     107.361E-03     109.702E-03    -61.3887E-03    -62.3602E-03
            4191               1     76.6546E-03     77.8484E-03    -43.8856E-03    -44.7435E-03
            4192               1     77.9839E-03     77.2431E-03    -45.0014E-03    -44.5948E-03
            4193               1     85.2149E-03     85.8205E-03    -48.8047E-03    -49.3067E-03
            4194               1     81.3420E-03     82.0725E-03    -46.8714E-03    -47.3478E-03
            4195               1     88.7679E-03     88.6107E-03    -50.7200E-03    -50.6500E-03
            4196               1     86.1048E-03     86.6232E-03    -49.5876E-03    -49.8930E-03
            4197               1     93.9080E-03     93.6328E-03    -53.5546E-03    -53.4847E-03
            4198               1     90.1637E-03     89.6552E-03    -51.8335E-03    -51.5645E-03
            4199               1     97.8874E-03     97.3763E-03    -55.6026E-03    -55.3424E-03
            4200               1     93.8581E-03     93.5723E-03    -53.9225E-03    -53.7700E-03
            4201               1     101.614E-03     100.686E-03    -57.6729E-03    -57.1444E-03
            4202               1     98.1073E-03     97.1070E-03    -56.2192E-03    -55.6824E-03
            4203               1     106.239E-03     105.140E-03    -59.9689E-03    -59.4414E-03
            4204               1     100.209E-03     99.5783E-03    -57.3361E-03    -56.9930E-03
            4205               1     108.433E-03     106.802E-03    -61.1443E-03    -60.0393E-03
            4206               1     103.354E-03     102.288E-03    -58.8816E-03    -58.4163E-03
            4207               1     113.017E-03     110.385E-03    -62.8722E-03    -61.8956E-03
            4208               1     99.3953E-03     101.454E-03    -56.5784E-03    -57.7411E-03
            4209               1     104.948E-03     109.933E-03    -58.0930E-03    -59.9224E-03
            4210               1     101.228E-03     102.931E-03    -58.1886E-03    -58.9177E-03
            4211               1     82.4612E-03     84.6881E-03    -47.4661E-03    -48.6406E-03
            4212               1     83.4471E-03     83.5841E-03    -48.1345E-03    -48.1387E-03
            4213               1     91.4873E-03     91.5573E-03    -52.7564E-03    -52.8078E-03
            4214               1     85.0358E-03     86.4547E-03    -49.0527E-03    -49.8031E-03
            4215               1     93.4069E-03     92.8099E-03    -53.9273E-03    -53.5822E-03
            4216               1     90.3438E-03     90.5128E-03    -52.1407E-03    -52.2215E-03
            4217               1     96.6683E-03     96.4887E-03    -55.7907E-03    -55.6951E-03
            4218               1     92.3153E-03     91.9529E-03    -53.2957E-03    -53.0793E-03
            4219               1     98.2694E-03     97.7356E-03    -56.6533E-03    -56.3504E-03
            4220               1     95.2277E-03     94.8259E-03    -54.9670E-03    -54.7300E-03
            4221               1     100.499E-03     100.138E-03    -57.8419E-03    -57.6499E-03
            4222               1     96.5019E-03     95.8033E-03    -55.6683E-03    -55.2647E-03
            4223               1     101.776E-03     101.015E-03    -58.4810E-03    -58.0188E-03
            4224               1     98.5955E-03     97.8960E-03    -56.8059E-03    -56.4150E-03
            4225               1     104.020E-03     103.242E-03    -59.5654E-03    -59.1521E-03
            4226               1     98.7845E-03     98.1376E-03    -56.8287E-03    -56.4517E-03
            4227               1     104.380E-03     103.088E-03    -59.6230E-03    -58.7628E-03
            4228               1     99.7163E-03     99.0996E-03    -57.1924E-03    -56.9092E-03
            4229               1     106.262E-03     104.540E-03    -60.0968E-03    -59.3770E-03
            4230               1     95.1905E-03     97.0850E-03    -54.5173E-03    -55.5402E-03
            4231               1     97.7987E-03     101.853E-03    -55.0341E-03    -56.6339E-03
            4232               1     95.5220E-03     96.7779E-03    -54.9977E-03    -55.5202E-03
            4233               1     84.9632E-03     87.2068E-03    -48.9580E-03    -50.0254E-03
            4234               1     82.3485E-03     82.0021E-03    -47.5331E-03    -47.3173E-03
            4235               1     91.7120E-03     89.3982E-03    -52.9153E-03    -51.6086E-03
            4236               1     82.4311E-03     82.7463E-03    -47.5819E-03    -47.7643E-03
            4237               1     92.2917E-03     89.8417E-03    -53.1306E-03    -51.7898E-03
            4238               1     82.2172E-03     82.8689E-03    -47.4618E-03    -47.7987E-03
            4239               1     85.8210E-03     88.5407E-03    -49.2651E-03    -50.4461E-03
            4240               1     82.8338E-03     82.7752E-03    -47.8237E-03    -47.7150E-03
            4241               1     177.166E-03     129.786E-03     7.38216E-03     6.65146E-03
            4242               1     218.917E-03     174.275E-03    -47.5060E-03    -46.4113E-03
            4243               1     184.276E-03     142.332E-03    -44.6514E-03    -44.0763E-03
            4244               1     168.846E-03     131.255E-03    -48.3734E-03    -47.8441E-03
            4245               1     148.310E-03     113.873E-03    -48.4007E-03    -47.6398E-03
            4246               1     129.482E-03     100.677E-03    -48.5404E-03    -48.0238E-03
            4247               1     112.620E-03     89.8070E-03    -48.6377E-03    -47.9273E-03
            4248               1     98.3042E-03     84.0430E-03    -48.5893E-03    -48.0127E-03
            4249               1     88.4612E-03     83.7032E-03    -48.6340E-03    -47.9689E-03
            4250               1     84.2368E-03     89.2230E-03    -48.6006E-03    -48.0050E-03
            4251               1     86.7631E-03     99.4106E-03    -48.6435E-03    -47.9622E-03
            4252               1     95.1830E-03     113.283E-03    -48.5694E-03    -48.0363E-03
            4253               1     108.669E-03     129.168E-03    -48.7060E-03    -47.8997E-03
            4254               1     124.615E-03     147.356E-03    -48.4647E-03    -48.1386E-03
            4255               1     143.953E-03     165.421E-03    -48.8573E-03    -47.7468E-03
            4256               1     162.596E-03     186.220E-03    -48.2506E-03    -48.3189E-03
            4257               1     185.399E-03     204.639E-03    -49.0614E-03    -47.5310E-03
            4258               1     204.102E-03     227.265E-03    -47.8832E-03    -48.2108E-03
            4259               1     229.960E-03     246.239E-03    -48.9068E-03    -47.6892E-03
            4260               1     222.291E-03     262.974E-03    -42.4918E-03    -41.4290E-03
            4261               1     166.284E-03     202.613E-03    -54.5653E-03    -53.8969E-03
            4262               1     146.264E-03     182.665E-03    -40.2271E-03    -39.8176E-03
            4263               1     124.982E-03     158.859E-03    -40.9724E-03    -40.0936E-03
            4264               1     107.053E-03     137.566E-03    -39.7522E-03    -39.3354E-03
            4265               1     91.0955E-03     117.359E-03    -39.9481E-03    -39.1616E-03
            4266               1     78.2835E-03     98.8369E-03    -39.7476E-03    -39.2231E-03
            4267               1     70.5813E-03     83.0851E-03    -39.8320E-03    -39.1368E-03
            4268               1     69.2715E-03     72.0327E-03    -39.7730E-03    -39.1860E-03
            4269               1     75.0196E-03     67.8036E-03    -39.8126E-03    -39.1460E-03
            4270               1     86.1685E-03     71.8477E-03    -39.7673E-03    -39.1906E-03
            4271               1     101.165E-03     82.7063E-03    -39.8414E-03    -39.1165E-03
            4272               1     118.360E-03     98.4247E-03    -39.7072E-03    -39.2513E-03
            4273               1     137.062E-03     116.811E-03    -39.9422E-03    -39.0162E-03
            4274               1     156.810E-03     136.888E-03    -39.5644E-03    -39.4031E-03
            4275               1     176.737E-03     158.373E-03    -40.1333E-03    -38.8298E-03
            4276               1     198.177E-03     179.564E-03    -39.4333E-03    -39.6609E-03
            4277               1     218.083E-03     203.347E-03    -40.2452E-03    -38.7395E-03
            4278               1     240.867E-03     223.631E-03    -40.5363E-03    -40.3464E-03
            4279               1     172.934E-03     145.464E-03     17.4040E-03     19.9832E-03
            4280               1     185.655E-03     160.363E-03    -1.14861E-03    -659.056E-06
            4281               1     190.081E-03     166.197E-03    -27.7390E-03    -27.6112E-03
            4282               1     178.759E-03     155.797E-03    -36.0389E-03    -36.2299E-03
            4283               1     171.386E-03     150.322E-03    -50.1139E-03    -49.6804E-03
            4284               1     152.071E-03     133.371E-03    -52.4763E-03    -52.1189E-03
            4285               1     140.077E-03     124.838E-03    -57.8714E-03    -57.5475E-03
            4286               1     124.494E-03     112.686E-03    -58.7119E-03    -58.3504E-03
            4287               1     115.317E-03     108.020E-03    -60.9054E-03    -60.5893E-03
            4288               1     107.785E-03     105.211E-03    -61.0773E-03    -60.7400E-03
            4289               1     107.305E-03     109.357E-03    -61.8826E-03    -61.5497E-03
            4290               1     110.836E-03     116.884E-03    -61.4602E-03    -61.1458E-03
            4291               1     120.632E-03     129.335E-03    -61.4619E-03    -61.1041E-03
            4292               1     132.699E-03     143.432E-03    -60.1494E-03    -59.8612E-03
            4293               1     149.195E-03     160.528E-03    -59.4140E-03    -58.9808E-03
            4294               1     164.739E-03     177.094E-03    -56.3957E-03    -56.2129E-03
            4295               1     184.806E-03     195.827E-03    -54.8471E-03    -53.9889E-03
            4296               1     199.759E-03     212.851E-03    -48.1299E-03    -48.7206E-03
            4297               1     223.973E-03     232.884E-03    -46.1654E-03    -44.0914E-03
            4298               1     194.238E-03     191.652E-03     9.25051E-03     8.64519E-03
            4299               1     215.985E-03     204.938E-03    -18.0311E-03    -18.3056E-03
            4300               1     206.146E-03     192.328E-03    -27.8855E-03    -28.6934E-03
            4301               1     195.751E-03     181.760E-03    -44.2441E-03    -43.2564E-03
            4302               1     166.441E-03     154.529E-03    -45.2179E-03    -44.4475E-03
            4303               1     150.656E-03     139.320E-03    -49.5946E-03    -48.8281E-03
            4304               1     128.438E-03     118.300E-03    -50.2095E-03    -49.2399E-03
            4305               1     113.931E-03     105.835E-03    -51.9653E-03    -51.2332E-03
            4306               1     100.103E-03     94.2136E-03    -52.2835E-03    -51.3838E-03
            4307               1     93.4479E-03     90.6903E-03    -53.0279E-03    -52.2448E-03
            4308               1     92.2353E-03     92.5653E-03    -52.9856E-03    -52.1539E-03
            4309               1     98.6224E-03     101.525E-03    -53.2031E-03    -52.3627E-03
            4310               1     109.808E-03     114.695E-03    -52.7036E-03    -51.9242E-03
            4311               1     126.166E-03     131.928E-03    -52.5199E-03    -51.6214E-03
            4312               1     143.483E-03     150.261E-03    -51.2345E-03    -50.4915E-03
            4313               1     165.129E-03     171.353E-03    -50.5569E-03    -49.4495E-03
            4314               1     183.420E-03     191.625E-03    -47.5552E-03    -47.1287E-03
            4315               1     210.083E-03     214.676E-03    -46.4763E-03    -44.4426E-03
            4316               1     226.144E-03     236.870E-03    -39.8923E-03    -41.2797E-03
            4317               1     225.996E-03     224.813E-03     8.94975E-03     212.443E-06
            4318               1     236.508E-03     230.456E-03    -22.0670E-03    -25.4585E-03
            4319               1     228.935E-03     223.367E-03    -48.1652E-03    -46.5106E-03
            4320               1     187.420E-03     184.936E-03    -46.4148E-03    -45.1379E-03
            4321               1     168.732E-03     165.514E-03    -46.3829E-03    -45.5770E-03
            4322               1     140.533E-03     137.584E-03    -45.6117E-03    -44.4522E-03
            4323               1     121.035E-03     118.167E-03    -44.9769E-03    -44.1528E-03
            4324               1     100.973E-03     97.8967E-03    -44.9533E-03    -43.8311E-03
            4325               1     86.9283E-03     84.4149E-03    -44.7431E-03    -43.8480E-03
            4326               1     78.6150E-03     76.4599E-03    -44.8012E-03    -43.7564E-03
            4327               1     78.6244E-03     77.4415E-03    -44.7545E-03    -43.7850E-03
            4328               1     86.8698E-03     86.5679E-03    -44.7548E-03    -43.7797E-03
            4329               1     101.408E-03     101.698E-03    -44.7793E-03    -43.7461E-03
            4330               1     119.442E-03     120.429E-03    -44.6946E-03    -43.7748E-03
            4331               1     141.100E-03     142.096E-03    -44.7223E-03    -43.6497E-03
            4332               1     162.226E-03     164.288E-03    -44.5063E-03    -43.5920E-03
            4333               1     188.362E-03     189.065E-03    -44.2981E-03    -43.2655E-03
            4334               1     209.138E-03     213.526E-03    -44.3489E-03    -43.3452E-03
            4335               1     242.622E-03     241.965E-03    -43.6414E-03    -43.1608E-03
            4336               1     296.755E-03     275.642E-03     8.20912E-03     7.88449E-03
            4337               1     269.942E-03     272.632E-03    -53.4503E-03    -50.5532E-03
            4338               1     206.407E-03     214.562E-03    -53.9395E-03    -51.7139E-03
            4339               1     184.981E-03     192.002E-03    -46.7127E-03    -46.1830E-03
            4340               1     154.707E-03     161.426E-03    -45.1285E-03    -43.9770E-03
            4341               1     131.954E-03     138.108E-03    -40.3687E-03    -39.7911E-03
            4342               1     108.432E-03     113.478E-03    -39.6274E-03    -38.6784E-03
            4343               1     88.2999E-03     92.4158E-03    -37.4135E-03    -36.7153E-03
            4344               1     72.5746E-03     74.5753E-03    -37.2078E-03    -36.3072E-03
            4345               1     63.4417E-03     63.2643E-03    -36.3007E-03    -35.5282E-03
            4346               1     65.4690E-03     62.6874E-03    -36.3969E-03    -35.5499E-03
            4347               1     76.0444E-03     71.8726E-03    -36.1695E-03    -35.3404E-03
            4348               1     93.4420E-03     88.8463E-03    -36.6099E-03    -35.8147E-03
            4349               1     114.132E-03     109.470E-03    -36.8658E-03    -36.0044E-03
            4350               1     136.510E-03     132.313E-03    -37.9629E-03    -37.1975E-03
            4351               1     161.195E-03     157.028E-03    -38.6594E-03    -37.9876E-03
            4352               1     184.986E-03     182.068E-03    -41.5360E-03    -40.3824E-03
            4353               1     213.007E-03     209.186E-03    -42.3642E-03    -42.8600E-03
            4354               1     238.922E-03     236.175E-03    -51.9319E-03    -48.4229E-03
            4355               1     351.488E-03     388.760E-03    -46.4100E-03    -37.5586E-03
            4356               1     233.514E-03     254.896E-03    -63.1503E-03    -58.8517E-03
            4357               1     193.968E-03     213.200E-03    -44.0654E-03    -44.3181E-03
            4358               1     166.244E-03     184.037E-03    -45.7559E-03    -44.9065E-03
            4359               1     140.266E-03     157.310E-03    -36.5247E-03    -36.4490E-03
            4360               1     117.431E-03     133.281E-03    -35.5674E-03    -35.1169E-03
            4361               1     93.8596E-03     108.488E-03    -30.8003E-03    -30.5672E-03
            4362               1     73.7779E-03     86.1641E-03    -30.1134E-03    -29.7394E-03
            4363               1     55.8733E-03     64.9408E-03    -27.8996E-03    -27.6065E-03
            4364               1     48.1688E-03     50.7876E-03    -27.7541E-03    -27.4005E-03
            4365               1     51.4877E-03     46.7045E-03    -26.9193E-03    -26.6026E-03
            4366               1     66.6531E-03     57.4764E-03    -27.3371E-03    -26.9977E-03
            4367               1     86.0402E-03     75.5408E-03    -27.3444E-03    -27.0178E-03
            4368               1     108.597E-03     97.9553E-03    -28.6372E-03    -28.3047E-03
            4369               1     131.785E-03     121.621E-03    -29.4390E-03    -29.1551E-03
            4370               1     156.145E-03     146.468E-03    -32.6132E-03    -32.2113E-03
            4371               1     180.595E-03     171.570E-03    -34.5947E-03    -34.7123E-03
            4372               1     205.783E-03     197.384E-03    -42.6976E-03    -41.4903E-03
            4373               1     229.118E-03     221.942E-03    -47.5584E-03    -48.6396E-03
            4374               1     69.0554E-03     69.3442E-03    -39.8463E-03    -39.9549E-03
            4375               1     70.1139E-03     69.8539E-03    -39.5182E-03    -39.1818E-03
            4376               1     71.7996E-03     72.6036E-03    -38.3238E-03    -38.2895E-03
            4377               1     77.3893E-03     78.3569E-03    -38.1508E-03    -38.0025E-03
            4378               1     84.3657E-03     85.9692E-03    -37.8417E-03    -37.8121E-03
            4379               1     93.5996E-03     95.3959E-03    -38.2502E-03    -38.1875E-03
            4380               1     103.670E-03     105.781E-03    -38.6315E-03    -38.6310E-03
            4381               1     115.055E-03     117.254E-03    -39.7932E-03    -39.7621E-03
            4382               1     126.722E-03     129.057E-03    -40.7826E-03    -40.8039E-03
            4383               1     139.347E-03     141.716E-03    -42.8257E-03    -42.7919E-03
            4384               1     151.937E-03     154.355E-03    -44.3275E-03    -44.3703E-03
            4385               1     165.608E-03     168.060E-03    -47.4660E-03    -47.3961E-03
            4386               1     179.211E-03     181.672E-03    -49.2271E-03    -49.3166E-03
            4387               1     194.783E-03     197.315E-03    -54.0197E-03    -53.8491E-03
            4388               1     210.966E-03     213.503E-03    -55.4040E-03    -55.6248E-03
            4389               1     232.019E-03     234.677E-03    -63.7870E-03    -63.3306E-03
            4390               1     258.064E-03     260.863E-03    -63.2412E-03    -63.8087E-03
            4391               1     298.697E-03     301.616E-03    -83.9884E-03    -82.6713E-03
            4392               1     409.703E-03     414.020E-03    -70.4803E-03    -71.3781E-03
            4393               1     77.4282E-03     76.0959E-03    -44.6270E-03    -43.8430E-03
            4394               1     75.9815E-03     76.2965E-03    -43.1643E-03    -43.0820E-03
            4395               1     78.8469E-03     78.7645E-03    -42.7818E-03    -42.3167E-03
            4396               1     83.1510E-03     84.1168E-03    -42.1277E-03    -42.0113E-03
            4397               1     90.4885E-03     91.5183E-03    -42.1884E-03    -41.9657E-03
            4398               1     99.1140E-03     100.687E-03    -42.2205E-03    -42.1822E-03
            4399               1     109.469E-03     111.109E-03    -42.9380E-03    -42.8374E-03
            4400               1     120.605E-03     122.515E-03    -43.5755E-03    -43.6029E-03
            4401               1     132.690E-03     134.593E-03    -45.0672E-03    -45.0006E-03
            4402               1     145.320E-03     147.377E-03    -46.2775E-03    -46.3485E-03
            4403               1     158.453E-03     160.450E-03    -48.6830E-03    -48.5859E-03
            4404               1     172.468E-03     174.575E-03    -50.4106E-03    -50.5310E-03
            4405               1     186.545E-03     188.575E-03    -53.9523E-03    -53.7620E-03
            4406               1     203.256E-03     205.336E-03    -55.9709E-03    -56.1861E-03
            4407               1     219.036E-03     221.109E-03    -60.9624E-03    -60.5926E-03
            4408               1     244.200E-03     246.024E-03    -62.7105E-03    -63.0899E-03
            4409               1     263.422E-03     265.595E-03    -68.3135E-03    -67.7065E-03
            4410               1     327.780E-03     328.052E-03    -69.1483E-03    -69.4527E-03
            4411               1     335.803E-03     335.650E-03    -20.2714E-03    -22.2189E-03
            4412               1     82.6758E-03     82.4307E-03    -47.5396E-03    -47.4188E-03
            4413               1     82.0170E-03     81.5229E-03    -46.6991E-03    -46.2159E-03
            4414               1     83.8709E-03     84.3465E-03    -46.0458E-03    -45.8621E-03
            4415               1     88.6065E-03     89.0163E-03    -45.7067E-03    -45.3715E-03
            4416               1     95.3062E-03     96.4271E-03    -45.5071E-03    -45.4202E-03
            4417               1     104.105E-03     105.241E-03    -45.7772E-03    -45.6102E-03
            4418               1     114.232E-03     115.744E-03    -46.0943E-03    -46.1059E-03
            4419               1     125.464E-03     126.948E-03    -47.0189E-03    -46.9300E-03
            4420               1     137.706E-03     139.403E-03    -47.8627E-03    -47.9368E-03
            4421               1     150.294E-03     151.911E-03    -49.4863E-03    -49.3982E-03
            4422               1     164.218E-03     165.979E-03    -50.9045E-03    -51.0278E-03
            4423               1     177.548E-03     179.210E-03    -53.2372E-03    -53.0910E-03
            4424               1     193.843E-03     195.565E-03    -55.2277E-03    -55.4164E-03
            4425               1     207.452E-03     209.175E-03    -57.8802E-03    -57.6512E-03
            4426               1     229.115E-03     230.576E-03    -60.0710E-03    -60.3496E-03
            4427               1     242.104E-03     244.066E-03    -60.2948E-03    -60.1287E-03
            4428               1     278.673E-03     279.183E-03    -61.0852E-03    -61.3256E-03
            4429               1     288.161E-03     290.126E-03    -36.4880E-03    -37.9154E-03
            4430               1     292.511E-03     296.020E-03    -17.1542E-03    -16.7774E-03
            4431               1     86.6676E-03     86.9607E-03    -49.8174E-03    -49.9456E-03
            4432               1     86.9909E-03     86.8925E-03    -49.6621E-03    -49.3934E-03
            4433               1     88.4173E-03     88.6005E-03    -48.8282E-03    -48.5834E-03
            4434               1     93.0087E-03     93.7579E-03    -48.6061E-03    -48.4903E-03
            4435               1     99.6045E-03     100.376E-03    -48.4319E-03    -48.2619E-03
            4436               1     108.274E-03     109.460E-03    -48.5267E-03    -48.5343E-03
            4437               1     118.209E-03     119.337E-03    -48.9357E-03    -48.8424E-03
            4438               1     129.582E-03     130.955E-03    -49.4066E-03    -49.4822E-03
            4439               1     141.374E-03     142.657E-03    -50.3142E-03    -50.2447E-03
            4440               1     154.703E-03     156.144E-03    -51.2452E-03    -51.3646E-03
            4441               1     167.455E-03     168.800E-03    -52.5549E-03    -52.4611E-03
            4442               1     182.849E-03     184.265E-03    -54.0430E-03    -54.2046E-03
            4443               1     195.750E-03     197.163E-03    -55.2511E-03    -55.1237E-03
            4444               1     214.385E-03     215.628E-03    -57.1679E-03    -57.3677E-03
            4445               1     225.888E-03     227.549E-03    -55.9668E-03    -55.9589E-03
            4446               1     249.718E-03     250.517E-03    -56.7368E-03    -56.8920E-03
            4447               1     257.363E-03     259.472E-03    -43.2957E-03    -44.1677E-03
            4448               1     268.546E-03     270.279E-03    -33.4103E-03    -33.2153E-03
            4449               1     272.015E-03     272.825E-03    -10.1013E-03    -11.2509E-03
            4450               1     92.2423E-03     91.4454E-03    -52.9576E-03    -52.5003E-03
            4451               1     90.4040E-03     90.8056E-03    -51.6695E-03    -51.7417E-03
            4452               1     92.8743E-03     93.2048E-03    -51.5735E-03    -51.4232E-03
            4453               1     96.6400E-03     97.2951E-03    -50.9502E-03    -50.9109E-03
            4454               1     103.559E-03     104.492E-03    -50.9826E-03    -51.0207E-03
            4455               1     111.708E-03     112.582E-03    -50.9756E-03    -50.9268E-03
            4456               1     121.782E-03     122.889E-03    -51.1621E-03    -51.2603E-03
            4457               1     132.398E-03     133.388E-03    -51.4888E-03    -51.4476E-03
            4458               1     144.675E-03     145.831E-03    -51.9135E-03    -52.0387E-03
            4459               1     156.620E-03     157.669E-03    -52.4002E-03    -52.3490E-03
            4460               1     170.796E-03     171.939E-03    -53.1676E-03    -53.3179E-03
            4461               1     183.233E-03     184.338E-03    -53.3967E-03    -53.3292E-03
            4462               1     199.510E-03     200.551E-03    -54.5168E-03    -54.6829E-03
            4463               1     211.179E-03     212.447E-03    -52.9833E-03    -52.9839E-03
            4464               1     229.349E-03     230.209E-03    -53.7379E-03    -53.8566E-03
            4465               1     237.461E-03     239.140E-03    -45.7356E-03    -46.1937E-03
            4466               1     248.938E-03     250.149E-03    -41.2329E-03    -41.1413E-03
            4467               1     251.206E-03     252.820E-03    -24.1936E-03    -25.1751E-03
            4468               1     248.851E-03     251.464E-03    -9.47897E-03    -9.14532E-03
            4469               1     95.5181E-03     95.6280E-03    -54.8262E-03    -54.8977E-03
            4470               1     95.2018E-03     95.0448E-03    -54.4667E-03    -54.2473E-03
            4471               1     95.8027E-03     96.5685E-03    -53.3854E-03    -53.5916E-03
            4472               1     100.804E-03     101.541E-03    -53.4888E-03    -53.6033E-03
            4473               1     106.813E-03     107.565E-03    -53.2174E-03    -53.2851E-03
            4474               1     115.284E-03     116.182E-03    -53.2697E-03    -53.4290E-03
            4475               1     124.350E-03     125.097E-03    -53.2059E-03    -53.2164E-03
            4476               1     135.201E-03     136.103E-03    -53.2403E-03    -53.3900E-03
            4477               1     145.956E-03     146.724E-03    -53.1178E-03    -53.1045E-03
            4478               1     158.638E-03     159.523E-03    -53.1984E-03    -53.3488E-03
            4479               1     170.245E-03     171.054E-03    -52.6932E-03    -52.6676E-03
            4480               1     184.496E-03     185.322E-03    -52.8351E-03    -52.9893E-03
            4481               1     196.095E-03     196.995E-03    -51.0491E-03    -51.0507E-03
            4482               1     211.174E-03     211.900E-03    -50.9733E-03    -51.0827E-03
            4483               1     221.140E-03     222.260E-03    -45.5791E-03    -45.7649E-03
            4484               1     232.558E-03     233.491E-03    -43.7936E-03    -43.7156E-03
            4485               1     236.317E-03     237.748E-03    -32.3077E-03    -32.9239E-03
            4486               1     235.803E-03     237.571E-03    -23.9558E-03    -23.5863E-03
            4487               1     232.530E-03     233.897E-03    -6.59836E-03    -7.39222E-03
            4488               1     100.423E-03     99.7351E-03    -57.6036E-03    -57.2459E-03
            4489               1     97.3909E-03     98.2614E-03    -55.7840E-03    -56.2196E-03
            4490               1     100.333E-03     100.973E-03    -56.0004E-03    -56.2455E-03
            4491               1     104.216E-03     104.960E-03    -55.6845E-03    -55.9205E-03
            4492               1     110.929E-03     111.676E-03    -55.7531E-03    -56.0165E-03
            4493               1     118.253E-03     118.809E-03    -55.5392E-03    -55.6295E-03
            4494               1     127.424E-03     128.096E-03    -55.3690E-03    -55.5655E-03
            4495               1     136.664E-03     137.163E-03    -54.8836E-03    -54.9090E-03
            4496               1     147.617E-03     148.245E-03    -54.4766E-03    -54.6361E-03
            4497               1     157.921E-03     158.437E-03    -53.4532E-03    -53.4549E-03
            4498               1     170.194E-03     170.791E-03    -52.7629E-03    -52.9142E-03
            4499               1     180.913E-03     181.486E-03    -50.6605E-03    -50.6686E-03
            4500               1     193.707E-03     194.246E-03    -49.4771E-03    -49.6049E-03
            4501               1     204.063E-03     204.725E-03    -45.1125E-03    -45.1756E-03
            4502               1     214.723E-03     215.310E-03    -42.8606E-03    -42.8608E-03
            4503               1     223.063E-03     223.829E-03    -34.7703E-03    -34.9277E-03
            4504               1     226.002E-03     227.264E-03    -31.2929E-03    -30.9758E-03
            4505               1     223.252E-03     224.439E-03    -18.5922E-03    -19.1085E-03
            4506               1     214.419E-03     216.357E-03    -6.67693E-03    -6.11882E-03
            4507               1     100.830E-03     101.918E-03    -57.8531E-03    -58.5604E-03
            4508               1     101.917E-03     102.776E-03    -58.3903E-03    -58.8845E-03
            4509               1     104.264E-03     104.978E-03    -58.3789E-03    -58.7429E-03
            4510               1     109.178E-03     109.863E-03    -58.5548E-03    -58.9634E-03
            4511               1     114.909E-03     115.297E-03    -58.4819E-03    -58.6513E-03
            4512               1     122.299E-03     122.759E-03    -58.2877E-03    -58.5447E-03
            4513               1     129.908E-03     130.150E-03    -57.7111E-03    -57.7744E-03
            4514               1     139.009E-03     139.371E-03    -57.0801E-03    -57.2501E-03
            4515               1     147.705E-03     147.928E-03    -55.7902E-03    -55.8094E-03
            4516               1     157.962E-03     158.302E-03    -54.6035E-03    -54.7439E-03
            4517               1     167.154E-03     167.421E-03    -52.2426E-03    -52.2565E-03
            4518               1     177.827E-03     178.155E-03    -50.2394E-03    -50.3694E-03
            4519               1     187.002E-03     187.328E-03    -46.1395E-03    -46.1737E-03
            4520               1     196.385E-03     196.702E-03    -42.8079E-03    -42.8802E-03
            4521               1     205.095E-03     205.410E-03    -36.1513E-03    -36.1817E-03
            4522               1     209.628E-03     210.116E-03    -31.1055E-03    -30.9584E-03
            4523               1     217.139E-03     217.351E-03    -21.5225E-03    -21.3852E-03
            4524               1     211.341E-03     212.997E-03    -18.3693E-03    -17.6899E-03
            4525               1     197.897E-03     199.167E-03    -3.59108E-03    -4.20784E-03
            4526               1     104.624E-03     106.128E-03    -60.3052E-03    -61.1661E-03
            4527               1     106.841E-03     107.441E-03    -61.2781E-03    -61.6614E-03
            4528               1     110.082E-03     110.770E-03    -61.6266E-03    -62.1632E-03
            4529               1     114.721E-03     114.887E-03    -61.9986E-03    -62.1863E-03
            4530               1     120.376E-03     120.613E-03    -61.9106E-03    -62.1995E-03
            4531               1     126.501E-03     126.485E-03    -61.4982E-03    -61.5792E-03
            4532               1     133.796E-03     133.873E-03    -60.8862E-03    -61.0482E-03
            4533               1     140.864E-03     140.801E-03    -59.6023E-03    -59.6284E-03
            4534               1     149.173E-03     149.222E-03    -58.2936E-03    -58.4057E-03
            4535               1     156.614E-03     156.576E-03    -55.8802E-03    -55.8904E-03
            4536               1     165.219E-03     165.291E-03    -53.5631E-03    -53.6656E-03
            4537               1     172.477E-03     172.500E-03    -49.5576E-03    -49.5760E-03
            4538               1     180.172E-03     180.275E-03    -45.6696E-03    -45.7634E-03
            4539               1     186.807E-03     186.855E-03    -39.5115E-03    -39.5264E-03
            4540               1     191.402E-03     191.528E-03    -33.2005E-03    -33.2289E-03
            4541               1     197.496E-03     197.359E-03    -24.6488E-03    -24.5176E-03
            4542               1     195.520E-03     195.714E-03    -15.3073E-03    -15.0872E-03
            4543               1     204.897E-03     204.254E-03    -4.58998E-03    -3.77859E-03
            4544               1     184.759E-03     186.929E-03    -3.17877E-03    -2.05860E-03
            4545               1     111.885E-03     112.120E-03    -64.5867E-03    -64.6839E-03
            4546               1     113.501E-03     113.963E-03    -65.0141E-03    -65.4417E-03
            4547               1     117.619E-03     117.402E-03    -66.0413E-03    -66.1007E-03
            4548               1     121.704E-03     121.586E-03    -66.1295E-03    -66.3183E-03
            4549               1     126.632E-03     126.327E-03    -66.0436E-03    -66.0812E-03
            4550               1     132.335E-03     132.075E-03    -65.6240E-03    -65.7140E-03
            4551               1     138.001E-03     137.679E-03    -64.5738E-03    -64.5886E-03
            4552               1     144.644E-03     144.371E-03    -63.4549E-03    -63.5058E-03
            4553               1     150.537E-03     150.223E-03    -61.2629E-03    -61.2670E-03
            4554               1     157.360E-03     157.121E-03    -59.1298E-03    -59.1698E-03
            4555               1     162.781E-03     162.501E-03    -55.3977E-03    -55.4024E-03
            4556               1     168.753E-03     168.588E-03    -51.6920E-03    -51.7327E-03
            4557               1     172.937E-03     172.720E-03    -45.8938E-03    -45.8999E-03
            4558               1     176.557E-03     176.496E-03    -39.6768E-03    -39.7184E-03
            4559               1     178.870E-03     178.663E-03    -31.4225E-03    -31.3877E-03
            4560               1     178.288E-03     178.238E-03    -21.1514E-03    -21.1856E-03
            4561               1     178.931E-03     178.362E-03    -10.5744E-03    -10.3119E-03
            4562               1     173.018E-03     172.326E-03     7.45604E-03     7.50048E-03
            4563               1     185.004E-03     182.594E-03     18.1828E-03     19.7871E-03
            4564               1     75.3231E-03     75.6239E-03    -43.3987E-03    -43.4807E-03
            4565               1     75.7370E-03     75.7514E-03    -43.1069E-03    -42.9240E-03
            4566               1     76.0965E-03     76.6772E-03    -42.3218E-03    -42.2855E-03
            4567               1     78.4312E-03     79.1754E-03    -42.1528E-03    -42.0658E-03
            4568               1     81.4530E-03     82.5948E-03    -41.8989E-03    -41.8699E-03
            4569               1     85.9867E-03     87.3302E-03    -42.1564E-03    -42.1184E-03
            4570               1     91.0285E-03     92.6307E-03    -42.3148E-03    -42.3105E-03
            4571               1     97.3118E-03     99.0368E-03    -43.0967E-03    -43.0769E-03
            4572               1     103.671E-03     105.554E-03    -43.5700E-03    -43.5843E-03
            4573               1     111.213E-03     113.152E-03    -44.9227E-03    -44.8984E-03
            4574               1     118.418E-03     120.463E-03    -45.5633E-03    -45.5968E-03
            4575               1     127.094E-03     129.160E-03    -47.5681E-03    -47.5137E-03
            4576               1     135.150E-03     137.313E-03    -48.0766E-03    -48.1504E-03
            4577               1     145.702E-03     147.872E-03    -51.0416E-03    -50.9030E-03
            4578               1     155.848E-03     158.160E-03    -50.8239E-03    -51.0007E-03
            4579               1     171.442E-03     173.758E-03    -56.1062E-03    -55.7235E-03
            4580               1     189.770E-03     192.441E-03    -53.8961E-03    -54.3159E-03
            4581               1     222.579E-03     225.297E-03    -68.1970E-03    -67.0505E-03
            4582               1     310.385E-03     314.869E-03    -55.2357E-03    -55.5772E-03
            4583               1     80.7076E-03     80.0412E-03    -46.5125E-03    -46.0660E-03
            4584               1     79.6630E-03     79.9560E-03    -45.4935E-03    -45.4560E-03
            4585               1     80.8106E-03     80.8540E-03    -45.1869E-03    -44.9062E-03
            4586               1     82.5590E-03     83.1910E-03    -44.7373E-03    -44.6424E-03
            4587               1     85.9588E-03     86.7058E-03    -44.7540E-03    -44.6163E-03
            4588               1     90.1309E-03     91.2414E-03    -44.7372E-03    -44.6992E-03
            4589               1     95.5606E-03     96.7836E-03    -45.2305E-03    -45.1679E-03
            4590               1     101.487E-03     102.942E-03    -45.5672E-03    -45.5812E-03
            4591               1     108.398E-03     109.883E-03    -46.5967E-03    -46.5524E-03
            4592               1     115.541E-03     117.200E-03    -47.2171E-03    -47.2683E-03
            4593               1     123.521E-03     125.134E-03    -48.8422E-03    -48.7702E-03
            4594               1     131.779E-03     133.558E-03    -49.6227E-03    -49.7194E-03
            4595               1     140.801E-03     142.471E-03    -51.9337E-03    -51.7823E-03
            4596               1     151.103E-03     152.943E-03    -52.5927E-03    -52.7706E-03
            4597               1     161.926E-03     163.641E-03    -55.7097E-03    -55.3958E-03
            4598               1     178.846E-03     180.564E-03    -55.7426E-03    -56.0286E-03
            4599               1     193.233E-03     195.025E-03    -58.8682E-03    -58.2985E-03
            4600               1     241.928E-03     242.358E-03    -57.7968E-03    -57.8511E-03
            4601               1     249.346E-03     248.733E-03    -16.7743E-03    -18.2064E-03
            4602               1     84.2788E-03     84.4009E-03    -48.5852E-03    -48.5948E-03
            4603               1     83.7840E-03     83.5169E-03    -47.9129E-03    -47.6053E-03
            4604               1     84.3257E-03     84.6167E-03    -47.3504E-03    -47.2217E-03
            4605               1     86.3392E-03     86.6260E-03    -47.0709E-03    -46.8603E-03
            4606               1     89.4810E-03     90.1919E-03    -46.9156E-03    -46.8418E-03
            4607               1     93.8585E-03     94.6499E-03    -47.1042E-03    -47.0009E-03
            4608               1     99.1310E-03     100.194E-03    -47.2964E-03    -47.2956E-03
            4609               1     105.283E-03     106.371E-03    -47.9666E-03    -47.9107E-03
            4610               1     112.122E-03     113.405E-03    -48.4726E-03    -48.5218E-03
            4611               1     119.470E-03     120.706E-03    -49.6349E-03    -49.5733E-03
            4612               1     127.646E-03     129.051E-03    -50.4342E-03    -50.5270E-03
            4613               1     135.766E-03     137.070E-03    -52.0511E-03    -51.9389E-03
            4614               1     145.722E-03     147.170E-03    -53.0310E-03    -53.1856E-03
            4615               1     154.250E-03     155.617E-03    -54.6934E-03    -54.5035E-03
            4616               1     168.199E-03     169.512E-03    -55.4087E-03    -55.6405E-03
            4617               1     176.375E-03     177.930E-03    -54.7606E-03    -54.5901E-03
            4618               1     202.246E-03     202.781E-03    -53.8241E-03    -53.9861E-03
            4619               1     207.549E-03     208.988E-03    -32.7702E-03    -33.8835E-03
            4620               1     210.943E-03     213.851E-03    -14.1967E-03    -14.0665E-03
            4621               1     87.8160E-03     87.8944E-03    -50.6293E-03    -50.6198E-03
            4622               1     87.2541E-03     87.2082E-03    -49.9803E-03    -49.8016E-03
            4623               1     87.4935E-03     87.5713E-03    -49.2599E-03    -49.0842E-03
            4624               1     89.5022E-03     89.9203E-03    -48.9982E-03    -48.9091E-03
            4625               1     92.5656E-03     93.0476E-03    -48.8529E-03    -48.7455E-03
            4626               1     96.9704E-03     97.7208E-03    -48.9130E-03    -48.9093E-03
            4627               1     102.170E-03     102.927E-03    -49.2304E-03    -49.1738E-03
            4628               1     108.407E-03     109.356E-03    -49.5607E-03    -49.6082E-03
            4629               1     115.021E-03     115.927E-03    -50.2568E-03    -50.2122E-03
            4630               1     122.767E-03     123.827E-03    -50.8750E-03    -50.9584E-03
            4631               1     130.212E-03     131.198E-03    -51.8579E-03    -51.7908E-03
            4632               1     139.552E-03     140.646E-03    -52.7542E-03    -52.8767E-03
            4633               1     147.116E-03     148.184E-03    -53.5689E-03    -53.4705E-03
            4634               1     158.769E-03     159.786E-03    -54.4389E-03    -54.6077E-03
            4635               1     164.982E-03     166.276E-03    -53.0660E-03    -53.0536E-03
            4636               1     180.392E-03     181.088E-03    -52.3547E-03    -52.5108E-03
            4637               1     182.917E-03     184.579E-03    -40.5610E-03    -41.2673E-03
            4638               1     189.224E-03     190.645E-03    -30.2059E-03    -30.1756E-03
            4639               1     191.186E-03     191.600E-03    -8.78691E-03    -9.70054E-03
            4640               1     91.7011E-03     91.0570E-03    -52.8449E-03    -52.4438E-03
            4641               1     89.8513E-03     89.9895E-03    -51.5228E-03    -51.5009E-03
            4642               1     90.6112E-03     90.7438E-03    -51.1305E-03    -51.0110E-03
            4643               1     92.0566E-03     92.4158E-03    -50.5843E-03    -50.5530E-03
            4644               1     95.4628E-03     95.9919E-03    -50.5507E-03    -50.5701E-03
            4645               1     99.5160E-03     100.036E-03    -50.5521E-03    -50.5249E-03
            4646               1     104.905E-03     105.587E-03    -50.7075E-03    -50.7709E-03
            4647               1     110.608E-03     111.229E-03    -50.9921E-03    -50.9692E-03
            4648               1     117.596E-03     118.352E-03    -51.3371E-03    -51.4210E-03
            4649               1     124.295E-03     124.982E-03    -51.7618E-03    -51.7296E-03
            4650               1     132.773E-03     133.553E-03    -52.3244E-03    -52.4286E-03
            4651               1     139.772E-03     140.531E-03    -52.5425E-03    -52.4968E-03
            4652               1     149.796E-03     150.528E-03    -53.1807E-03    -53.3052E-03
            4653               1     155.766E-03     156.699E-03    -51.8915E-03    -51.8982E-03
            4654               1     166.800E-03     167.434E-03    -51.6167E-03    -51.7435E-03
            4655               1     169.057E-03     170.375E-03    -44.6456E-03    -45.0272E-03
            4656               1     174.341E-03     175.299E-03    -38.9699E-03    -39.0256E-03
            4657               1     172.707E-03     173.866E-03    -23.3667E-03    -24.1806E-03
            4658               1     168.824E-03     170.894E-03    -8.21096E-03    -8.13063E-03
            4659               1     94.0054E-03     93.9004E-03    -54.1697E-03    -54.0946E-03
            4660               1     93.0894E-03     92.8827E-03    -53.4208E-03    -53.2225E-03
            4661               1     92.6475E-03     93.0590E-03    -52.3846E-03    -52.5004E-03
            4662               1     94.9926E-03     95.3847E-03    -52.2934E-03    -52.3665E-03
            4663               1     97.8028E-03     98.2018E-03    -52.0510E-03    -52.0977E-03
            4664               1     102.204E-03     102.698E-03    -52.0808E-03    -52.1895E-03
            4665               1     106.861E-03     107.252E-03    -52.0594E-03    -52.0711E-03
            4666               1     112.848E-03     113.350E-03    -52.1447E-03    -52.2461E-03
            4667               1     118.617E-03     119.027E-03    -52.1165E-03    -52.1125E-03
            4668               1     125.995E-03     126.491E-03    -52.2685E-03    -52.3683E-03
            4669               1     132.288E-03     132.741E-03    -51.9767E-03    -51.9659E-03
            4670               1     140.892E-03     141.346E-03    -52.1356E-03    -52.2356E-03
            4671               1     146.771E-03     147.332E-03    -50.8330E-03    -50.8475E-03
            4672               1     155.785E-03     156.165E-03    -50.5143E-03    -50.5909E-03
            4673               1     159.289E-03     160.107E-03    -46.1416E-03    -46.3066E-03
            4674               1     164.436E-03     165.044E-03    -43.3093E-03    -43.3297E-03
            4675               1     162.291E-03     163.376E-03    -32.9829E-03    -33.5070E-03
            4676               1     157.491E-03     158.874E-03    -23.1689E-03    -23.0668E-03
            4677               1     152.596E-03     153.377E-03    -6.23907E-03    -6.93062E-03
            4678               1     97.2142E-03     96.6544E-03    -55.9826E-03    -55.6694E-03
            4679               1     94.4002E-03     94.9540E-03    -54.2215E-03    -54.5093E-03
            4680               1     95.7081E-03     96.0603E-03    -54.1373E-03    -54.2962E-03
            4681               1     97.3705E-03     97.7627E-03    -53.7779E-03    -53.9369E-03
            4682               1     100.770E-03     101.157E-03    -53.7567E-03    -53.9409E-03
            4683               1     104.387E-03     104.613E-03    -53.5799E-03    -53.6435E-03
            4684               1     109.266E-03     109.564E-03    -53.4891E-03    -53.6257E-03
            4685               1     113.985E-03     114.146E-03    -53.1588E-03    -53.1805E-03
            4686               1     120.100E-03     120.341E-03    -52.9648E-03    -53.0718E-03
            4687               1     125.421E-03     125.581E-03    -52.2640E-03    -52.2730E-03
            4688               1     132.555E-03     132.749E-03    -51.9048E-03    -51.9992E-03
            4689               1     137.863E-03     138.073E-03    -50.3971E-03    -50.4178E-03
            4690               1     145.349E-03     145.469E-03    -49.6125E-03    -49.6793E-03
            4691               1     149.500E-03     149.828E-03    -46.2899E-03    -46.3610E-03
            4692               1     154.814E-03     154.945E-03    -44.2137E-03    -44.1941E-03
            4693               1     155.508E-03     156.027E-03    -37.5972E-03    -37.7341E-03
            4694               1     152.813E-03     153.649E-03    -32.4362E-03    -32.3339E-03
            4695               1     144.897E-03     145.641E-03    -20.2057E-03    -20.6449E-03
            4696               1     133.620E-03     135.262E-03    -6.38903E-03    -6.12827E-03
            4697               1     96.8694E-03     97.7735E-03    -55.7860E-03    -56.3398E-03
            4698               1     97.3914E-03     97.9595E-03    -55.9340E-03    -56.2797E-03
            4699               1     98.3394E-03     98.7592E-03    -55.7188E-03    -55.9772E-03
            4700               1     100.804E-03     101.183E-03    -55.7191E-03    -56.0098E-03
            4701               1     103.599E-03     103.706E-03    -55.5864E-03    -55.7016E-03
            4702               1     107.396E-03     107.542E-03    -55.4230E-03    -55.6053E-03
            4703               1     111.115E-03     111.061E-03    -54.9766E-03    -55.0214E-03
            4704               1     115.954E-03     115.965E-03    -54.5813E-03    -54.6987E-03
            4705               1     120.178E-03     120.065E-03    -53.6356E-03    -53.6544E-03
            4706               1     125.809E-03     125.751E-03    -52.9052E-03    -52.9954E-03
            4707               1     130.095E-03     129.987E-03    -51.1657E-03    -51.1881E-03
            4708               1     136.003E-03     135.880E-03    -49.8799E-03    -49.9488E-03
            4709               1     139.669E-03     139.605E-03    -46.7878E-03    -46.8366E-03
            4710               1     144.372E-03     144.168E-03    -44.4547E-03    -44.4550E-03
            4711               1     146.237E-03     146.209E-03    -39.2667E-03    -39.3186E-03
            4712               1     146.253E-03     146.109E-03    -35.1051E-03    -34.9193E-03
            4713               1     143.675E-03     143.699E-03    -27.2572E-03    -27.1238E-03
            4714               1     132.227E-03     133.481E-03    -20.4807E-03    -20.1625E-03
            4715               1     116.781E-03     117.200E-03    -4.93960E-03    -5.48579E-03
            4716               1     99.4490E-03     100.539E-03    -57.3807E-03    -58.0081E-03
            4717               1     100.634E-03     101.067E-03    -57.8287E-03    -58.1317E-03
            4718               1     102.294E-03     102.727E-03    -57.9238E-03    -58.3123E-03
            4719               1     104.651E-03     104.633E-03    -58.0553E-03    -58.1851E-03
            4720               1     107.483E-03     107.496E-03    -57.9092E-03    -58.1167E-03
            4721               1     110.409E-03     110.172E-03    -57.5289E-03    -57.5832E-03
            4722               1     114.116E-03     113.917E-03    -57.0903E-03    -57.2049E-03
            4723               1     117.349E-03     117.000E-03    -56.1014E-03    -56.1214E-03
            4724               1     121.625E-03     121.321E-03    -55.2323E-03    -55.3077E-03
            4725               1     124.787E-03     124.393E-03    -53.4071E-03    -53.4212E-03
            4726               1     129.153E-03     128.787E-03    -51.8623E-03    -51.9226E-03
            4727               1     131.692E-03     131.297E-03    -48.8015E-03    -48.8308E-03
            4728               1     135.150E-03     134.719E-03    -46.1461E-03    -46.1796E-03
            4729               1     136.289E-03     135.885E-03    -41.3429E-03    -41.3822E-03
            4730               1     136.797E-03     136.258E-03    -36.9199E-03    -36.8554E-03
            4731               1     135.344E-03     134.773E-03    -30.0825E-03    -30.0078E-03
            4732               1     129.205E-03     128.543E-03    -23.2514E-03    -22.8928E-03
            4733               1     122.683E-03     121.752E-03    -14.4954E-03    -13.7200E-03
            4734               1     98.4701E-03     100.743E-03    -5.07970E-03    -4.40841E-03
            4735               1     104.419E-03     104.614E-03    -60.2809E-03    -60.3792E-03
            4736               1     105.187E-03     105.507E-03    -60.3865E-03    -60.7060E-03
            4737               1     107.451E-03     107.207E-03    -60.9333E-03    -60.9737E-03
            4738               1     109.447E-03     109.247E-03    -60.8517E-03    -60.9905E-03
            4739               1     111.813E-03     111.397E-03    -60.6537E-03    -60.6770E-03
            4740               1     114.625E-03     114.203E-03    -60.2944E-03    -60.3595E-03
            4741               1     117.129E-03     116.596E-03    -59.4376E-03    -59.4473E-03
            4742               1     120.387E-03     119.844E-03    -58.6530E-03    -58.6885E-03
            4743               1     122.688E-03     122.067E-03    -56.9650E-03    -56.9697E-03
            4744               1     125.868E-03     125.250E-03    -55.5016E-03    -55.5265E-03
            4745               1     127.365E-03     126.688E-03    -52.6263E-03    -52.6352E-03
            4746               1     129.603E-03     128.940E-03    -50.0468E-03    -50.0653E-03
            4747               1     129.454E-03     128.751E-03    -45.4991E-03    -45.5168E-03
            4748               1     129.292E-03     128.584E-03    -41.1108E-03    -41.1102E-03
            4749               1     126.409E-03     125.630E-03    -34.4585E-03    -34.4613E-03
            4750               1     121.606E-03     120.706E-03    -27.2991E-03    -27.2313E-03
            4751               1     114.465E-03     113.192E-03    -18.4017E-03    -18.2533E-03
            4752               1     101.498E-03     99.6165E-03    -6.85939E-03    -6.51592E-03
            4753               1     87.5559E-03     83.7461E-03     4.17618E-03     5.64372E-03
            4754               1     82.5653E-03     82.9282E-03    -47.5743E-03    -47.6803E-03
            4755               1     82.5994E-03     82.8029E-03    -47.4705E-03    -47.4513E-03
            4756               1     81.9916E-03     82.3137E-03    -46.9154E-03    -46.9135E-03
            4757               1     82.4669E-03     82.8414E-03    -46.8856E-03    -46.8562E-03
            4758               1     82.5312E-03     83.0430E-03    -46.5075E-03    -46.4950E-03
            4759               1     83.6781E-03     84.2894E-03    -46.6562E-03    -46.6359E-03
            4760               1     84.4232E-03     85.1688E-03    -46.4442E-03    -46.4400E-03
            4761               1     86.2182E-03     87.0569E-03    -46.7654E-03    -46.7521E-03
            4762               1     87.4660E-03     88.4313E-03    -46.6067E-03    -46.6134E-03
            4763               1     89.8314E-03     90.8645E-03    -47.0520E-03    -47.0351E-03
            4764               1     91.3725E-03     92.5438E-03    -46.7350E-03    -46.7570E-03
            4765               1     94.4141E-03     95.6217E-03    -47.2651E-03    -47.2261E-03
            4766               1     96.2795E-03     97.6777E-03    -46.4510E-03    -46.5034E-03
            4767               1     100.838E-03     102.232E-03    -47.2060E-03    -47.0980E-03
            4768               1     104.101E-03     105.818E-03    -45.3889E-03    -45.5095E-03
            4769               1     113.283E-03     114.951E-03    -47.3289E-03    -47.0071E-03
            4770               1     123.213E-03     125.537E-03    -43.6013E-03    -43.8515E-03
            4771               1     147.765E-03     150.151E-03    -51.5695E-03    -50.5481E-03
            4772               1     212.531E-03     217.302E-03    -39.5870E-03    -39.2473E-03
            4773               1     85.2099E-03     85.2176E-03    -49.1115E-03    -49.0420E-03
            4774               1     84.0748E-03     84.4619E-03    -48.3430E-03    -48.4512E-03
            4775               1     84.3811E-03     84.4902E-03    -48.3179E-03    -48.2263E-03
            4776               1     84.1373E-03     84.4604E-03    -47.8715E-03    -47.8539E-03
            4777               1     85.0197E-03     85.3462E-03    -47.9695E-03    -47.9025E-03
            4778               1     85.5624E-03     86.0589E-03    -47.7452E-03    -47.7247E-03
            4779               1     87.1179E-03     87.6732E-03    -48.0242E-03    -47.9864E-03
            4780               1     88.3263E-03     89.0290E-03    -47.9524E-03    -47.9535E-03
            4781               1     90.4863E-03     91.2222E-03    -48.4067E-03    -48.3769E-03
            4782               1     92.1869E-03     93.0813E-03    -48.3600E-03    -48.3880E-03
            4783               1     94.8905E-03     95.7555E-03    -48.9562E-03    -48.9064E-03
            4784               1     97.0491E-03     98.1281E-03    -48.7261E-03    -48.7915E-03
            4785               1     100.482E-03     101.441E-03    -49.4348E-03    -49.3213E-03
            4786               1     103.748E-03     105.014E-03    -48.7016E-03    -48.8220E-03
            4787               1     108.852E-03     109.894E-03    -49.5624E-03    -49.2908E-03
            4788               1     116.779E-03     118.126E-03    -47.9413E-03    -48.0942E-03
            4789               1     125.680E-03     126.832E-03    -48.4297E-03    -47.8427E-03
            4790               1     158.350E-03     158.734E-03    -45.6819E-03    -45.3969E-03
            4791               1     165.192E-03     163.809E-03    -12.7497E-03    -13.6031E-03
            4792               1     86.8539E-03     87.3789E-03    -50.0768E-03    -50.3208E-03
            4793               1     86.6569E-03     86.5853E-03    -49.8502E-03    -49.7261E-03
            4794               1     85.7574E-03     86.0006E-03    -49.1291E-03    -49.1432E-03
            4795               1     86.2864E-03     86.3814E-03    -49.1285E-03    -49.0196E-03
            4796               1     86.4986E-03     86.8139E-03    -48.8207E-03    -48.7947E-03
            4797               1     87.7669E-03     88.0873E-03    -49.0231E-03    -48.9611E-03
            4798               1     88.8531E-03     89.3350E-03    -48.9769E-03    -48.9682E-03
            4799               1     90.7895E-03     91.2882E-03    -49.3767E-03    -49.3403E-03
            4800               1     92.5666E-03     93.2154E-03    -49.4890E-03    -49.5096E-03
            4801               1     95.0289E-03     95.6437E-03    -50.0501E-03    -50.0077E-03
            4802               1     97.4023E-03     98.2040E-03    -50.1890E-03    -50.2465E-03
            4803               1     100.217E-03     100.906E-03    -50.7827E-03    -50.7026E-03
            4804               1     103.413E-03     104.349E-03    -50.7035E-03    -50.8102E-03
            4805               1     106.379E-03     107.141E-03    -50.9046E-03    -50.7526E-03
            4806               1     111.911E-03     112.866E-03    -50.1316E-03    -50.2803E-03
            4807               1     114.523E-03     115.449E-03    -48.1758E-03    -47.9753E-03
            4808               1     129.052E-03     129.420E-03    -45.6585E-03    -45.6779E-03
            4809               1     129.383E-03     130.148E-03    -28.1079E-03    -28.8559E-03
            4810               1     132.375E-03     134.640E-03    -10.8018E-03    -10.9151E-03
            4811               1     90.3847E-03     90.1887E-03    -52.1375E-03    -51.9937E-03
            4812               1     88.0794E-03     88.1971E-03    -50.6946E-03    -50.6980E-03
            4813               1     87.9673E-03     87.8572E-03    -50.4260E-03    -50.2711E-03
            4814               1     87.5271E-03     87.7189E-03    -49.8514E-03    -49.8315E-03
            4815               1     88.3844E-03     88.5124E-03    -49.9119E-03    -49.8285E-03
            4816               1     89.1635E-03     89.4802E-03    -49.7878E-03    -49.7780E-03
            4817               1     90.7945E-03     91.1037E-03    -50.0760E-03    -50.0379E-03
            4818               1     92.4739E-03     92.9187E-03    -50.2226E-03    -50.2360E-03
            4819               1     94.6804E-03     95.0987E-03    -50.6790E-03    -50.6495E-03
            4820               1     97.0889E-03     97.6516E-03    -50.9808E-03    -51.0245E-03
            4821               1     99.5769E-03     100.062E-03    -51.4628E-03    -51.4162E-03
            4822               1     102.690E-03     103.351E-03    -51.7434E-03    -51.8246E-03
            4823               1     104.819E-03     105.389E-03    -51.7414E-03    -51.6755E-03
            4824               1     108.902E-03     109.593E-03    -51.5087E-03    -51.6294E-03
            4825               1     109.207E-03     109.998E-03    -49.3179E-03    -49.3107E-03
            4826               1     115.442E-03     115.919E-03    -47.1558E-03    -47.2682E-03
            4827               1     111.725E-03     112.892E-03    -36.5736E-03    -37.0928E-03
            4828               1     113.246E-03     114.248E-03    -26.1309E-03    -26.2511E-03
            4829               1     113.794E-03     113.689E-03    -7.06449E-03    -7.65125E-03
            4830               1     91.8435E-03     91.4178E-03    -52.9995E-03    -52.7360E-03
            4831               1     90.5604E-03     90.2744E-03    -52.1561E-03    -51.9500E-03
            4832               1     89.0670E-03     89.0908E-03    -51.0849E-03    -51.0284E-03
            4833               1     89.2907E-03     89.2693E-03    -50.8831E-03    -50.7834E-03
            4834               1     89.5179E-03     89.7128E-03    -50.5488E-03    -50.5432E-03
            4835               1     90.7267E-03     90.8957E-03    -50.6691E-03    -50.6385E-03
            4836               1     92.1150E-03     92.4026E-03    -50.7411E-03    -50.7546E-03
            4837               1     93.9802E-03     94.2432E-03    -51.0379E-03    -51.0254E-03
            4838               1     96.2124E-03     96.5780E-03    -51.3364E-03    -51.3714E-03
            4839               1     98.4293E-03     98.7402E-03    -51.6775E-03    -51.6564E-03
            4840               1     101.358E-03     101.791E-03    -52.0697E-03    -52.1314E-03
            4841               1     103.290E-03     103.661E-03    -52.0535E-03    -52.0248E-03
            4842               1     106.702E-03     107.169E-03    -52.1792E-03    -52.2702E-03
            4843               1     106.761E-03     107.321E-03    -50.5165E-03    -50.5527E-03
            4844               1     109.883E-03     110.315E-03    -49.1440E-03    -49.2640E-03
            4845               1     105.272E-03     106.264E-03    -42.3378E-03    -42.6845E-03
            4846               1     103.999E-03     104.623E-03    -35.6628E-03    -35.8456E-03
            4847               1     97.6008E-03     98.3502E-03    -21.3448E-03    -21.9394E-03
            4848               1     93.4803E-03     94.8431E-03    -6.46721E-03    -6.72433E-03
            4849               1     94.1405E-03     93.5854E-03    -54.3329E-03    -53.9993E-03
            4850               1     91.4466E-03     91.2060E-03    -52.6967E-03    -52.5324E-03
            4851               1     90.7956E-03     90.6448E-03    -52.1098E-03    -51.9829E-03
            4852               1     90.2099E-03     90.3119E-03    -51.4253E-03    -51.4234E-03
            4853               1     90.8906E-03     90.9712E-03    -51.3332E-03    -51.3215E-03
            4854               1     91.8226E-03     91.9992E-03    -51.2500E-03    -51.2733E-03
            4855               1     93.2491E-03     93.4006E-03    -51.3530E-03    -51.3663E-03
            4856               1     95.1241E-03     95.3324E-03    -51.5437E-03    -51.5778E-03
            4857               1     96.9771E-03     97.1436E-03    -51.6955E-03    -51.7000E-03
            4858               1     99.5551E-03     99.7922E-03    -52.0139E-03    -52.0637E-03
            4859               1     101.360E-03     101.544E-03    -51.9458E-03    -51.9387E-03
            4860               1     104.349E-03     104.602E-03    -52.1744E-03    -52.2402E-03
            4861               1     104.909E-03     105.194E-03    -51.0766E-03    -51.1011E-03
            4862               1     107.261E-03     107.512E-03    -50.4558E-03    -50.5306E-03
            4863               1     103.855E-03     104.489E-03    -46.1789E-03    -46.3958E-03
            4864               1     101.958E-03     102.326E-03    -42.2431E-03    -42.3593E-03
            4865               1     92.6771E-03     93.6493E-03    -32.0294E-03    -32.5353E-03
            4866               1     84.1113E-03     84.9106E-03    -21.2340E-03    -21.4594E-03
            4867               1     77.7699E-03     78.1255E-03    -5.39879E-03    -5.81254E-03
            4868               1     94.6431E-03     94.1630E-03    -54.6142E-03    -54.3371E-03
            4869               1     92.9616E-03     92.7127E-03    -53.5944E-03    -53.4367E-03
            4870               1     91.3954E-03     91.4364E-03    -52.4844E-03    -52.4879E-03
            4871               1     91.4987E-03     91.5687E-03    -52.1728E-03    -52.2037E-03
            4872               1     91.9067E-03     92.0112E-03    -51.9108E-03    -51.9496E-03
            4873               1     92.8386E-03     92.9359E-03    -51.8155E-03    -51.8702E-03
            4874               1     94.2618E-03     94.3492E-03    -51.8640E-03    -51.9037E-03
            4875               1     95.6405E-03     95.6988E-03    -51.8015E-03    -51.8364E-03
            4876               1     97.7203E-03     97.7944E-03    -51.9508E-03    -51.9963E-03
            4877               1     99.2120E-03     99.2365E-03    -51.7346E-03    -51.7475E-03
            4878               1     101.693E-03     101.756E-03    -51.8389E-03    -51.8932E-03
            4879               1     102.569E-03     102.604E-03    -51.0167E-03    -51.0274E-03
            4880               1     104.676E-03     104.720E-03    -50.6867E-03    -50.7390E-03
            4881               1     103.134E-03     103.310E-03    -48.1032E-03    -48.1811E-03
            4882               1     102.262E-03     102.353E-03    -46.0992E-03    -46.1317E-03
            4883               1     94.6925E-03     95.3058E-03    -39.4976E-03    -39.7967E-03
            4884               1     85.9070E-03     86.2990E-03    -32.6884E-03    -32.8083E-03
            4885               1     71.7326E-03     72.5715E-03    -19.9621E-03    -20.3708E-03
            4886               1     60.5071E-03     61.2649E-03    -5.43599E-03    -5.78090E-03
            4887               1     95.8208E-03     95.4417E-03    -55.2725E-03    -55.0629E-03
            4888               1     92.8936E-03     93.0761E-03    -53.5713E-03    -53.6806E-03
            4889               1     92.5586E-03     92.7130E-03    -53.1597E-03    -53.2649E-03
            4890               1     92.5227E-03     92.6167E-03    -52.7793E-03    -52.8519E-03
            4891               1     92.9964E-03     93.1078E-03    -52.5307E-03    -52.6462E-03
            4892               1     93.9950E-03     93.9971E-03    -52.4717E-03    -52.5218E-03
            4893               1     94.8622E-03     94.8557E-03    -52.2152E-03    -52.2873E-03
            4894               1     96.3993E-03     96.3390E-03    -52.1940E-03    -52.2383E-03
            4895               1     97.4010E-03     97.3013E-03    -51.7814E-03    -51.8171E-03
            4896               1     99.2476E-03     99.1439E-03    -51.6655E-03    -51.7132E-03
            4897               1     99.9660E-03     99.8104E-03    -50.8366E-03    -50.8519E-03
            4898               1     101.639E-03     101.490E-03    -50.4159E-03    -50.4610E-03
            4899               1     101.106E-03     100.945E-03    -48.6049E-03    -48.6219E-03
            4900               1     101.067E-03     100.882E-03    -47.3284E-03    -47.3376E-03
            4901               1     97.0428E-03     96.9883E-03    -43.4226E-03    -43.4794E-03
            4902               1     91.4477E-03     91.3473E-03    -39.9821E-03    -39.8906E-03
            4903               1     78.2548E-03     78.8807E-03    -31.3377E-03    -31.6338E-03
            4904               1     61.7939E-03     62.0566E-03    -21.3747E-03    -21.4753E-03
            4905               1     43.6778E-03     44.5021E-03    -5.38832E-03    -5.54912E-03
            4906               1     94.3027E-03     94.9750E-03    -54.3766E-03    -54.7715E-03
            4907               1     93.8295E-03     94.2466E-03    -54.1146E-03    -54.3743E-03
            4908               1     93.6554E-03     93.8190E-03    -53.8085E-03    -53.9414E-03
            4909               1     93.7877E-03     93.9982E-03    -53.4960E-03    -53.6991E-03
            4910               1     94.5308E-03     94.4764E-03    -53.4352E-03    -53.4946E-03
            4911               1     94.9430E-03     94.9176E-03    -53.0445E-03    -53.1591E-03
            4912               1     96.0206E-03     95.8520E-03    -52.9210E-03    -52.9621E-03
            4913               1     96.4968E-03     96.3077E-03    -52.3411E-03    -52.3981E-03
            4914               1     97.7100E-03     97.4651E-03    -52.0367E-03    -52.0769E-03
            4915               1     97.9616E-03     97.6633E-03    -51.0831E-03    -51.1087E-03
            4916               1     98.9881E-03     98.6771E-03    -50.4438E-03    -50.4858E-03
            4917               1     98.4810E-03     98.1045E-03    -48.8070E-03    -48.8144E-03
            4918               1     98.4428E-03     98.0568E-03    -47.5319E-03    -47.5573E-03
            4919               1     96.0972E-03     95.6395E-03    -44.7378E-03    -44.7122E-03
            4920               1     92.8082E-03     92.3482E-03    -42.2924E-03    -42.2346E-03
            4921               1     86.0162E-03     85.4912E-03    -37.5448E-03    -37.4276E-03
            4922               1     74.5818E-03     74.1175E-03    -32.9835E-03    -32.6549E-03
            4923               1     52.2890E-03     53.1031E-03    -21.4685E-03    -21.6554E-03
            4924               1     27.0281E-03     26.8804E-03    -6.22285E-03    -6.56530E-03
            4925               1     94.9364E-03     95.7696E-03    -54.7969E-03    -55.2575E-03
            4926               1     95.2445E-03     95.5541E-03    -54.9367E-03    -55.1448E-03
            4927               1     95.1843E-03     95.5244E-03    -54.6675E-03    -54.9506E-03
            4928               1     95.9097E-03     95.8234E-03    -54.7404E-03    -54.8025E-03
            4929               1     95.9906E-03     95.9615E-03    -54.2994E-03    -54.4408E-03
            4930               1     96.7668E-03     96.5150E-03    -54.1642E-03    -54.1959E-03
            4931               1     96.8279E-03     96.5730E-03    -53.5013E-03    -53.5679E-03
            4932               1     97.5553E-03     97.1966E-03    -53.1108E-03    -53.1381E-03
            4933               1     97.3301E-03     96.9255E-03    -52.0682E-03    -52.0985E-03
            4934               1     97.7500E-03     97.3027E-03    -51.2888E-03    -51.3187E-03
            4935               1     96.8190E-03     96.3026E-03    -49.6288E-03    -49.6416E-03
            4936               1     96.3279E-03     95.7903E-03    -48.2112E-03    -48.2391E-03
            4937               1     94.0237E-03     93.3929E-03    -45.6416E-03    -45.6315E-03
            4938               1     91.3282E-03     90.6696E-03    -43.2105E-03    -43.2069E-03
            4939               1     86.5282E-03     85.6797E-03    -39.5040E-03    -39.4000E-03
            4940               1     78.9626E-03     78.0863E-03    -35.6490E-03    -35.5044E-03
            4941               1     69.0327E-03     67.7059E-03    -30.5704E-03    -30.1474E-03
            4942               1     50.1277E-03     48.5643E-03    -24.9735E-03    -24.1258E-03
            4943               1     11.8516E-03     12.2835E-03    -6.71935E-03    -6.57691E-03
            4944               1     97.5676E-03     97.8021E-03    -56.3259E-03    -56.4201E-03
            4945               1     97.2116E-03     97.5272E-03    -56.0537E-03    -56.2907E-03
            4946               1     98.0643E-03     97.9092E-03    -56.3369E-03    -56.3529E-03
            4947               1     97.9181E-03     97.8121E-03    -55.9081E-03    -56.0076E-03
            4948               1     98.5052E-03     98.1890E-03    -55.8099E-03    -55.8182E-03
            4949               1     98.3348E-03     98.0011E-03    -55.1638E-03    -55.2059E-03
            4950               1     98.7761E-03     98.3369E-03    -54.7862E-03    -54.7947E-03
            4951               1     98.2926E-03     97.8020E-03    -53.7751E-03    -53.7931E-03
            4952               1     98.3676E-03     97.8175E-03    -53.0153E-03    -53.0254E-03
            4953               1     97.1320E-03     96.5140E-03    -51.4092E-03    -51.4171E-03
            4954               1     96.3034E-03     95.6511E-03    -50.0191E-03    -50.0311E-03
            4955               1     93.6610E-03     92.9264E-03    -47.5245E-03    -47.5253E-03
            4956               1     90.9260E-03     90.1727E-03    -45.1109E-03    -45.1218E-03
            4957               1     85.9427E-03     85.0569E-03    -41.4656E-03    -41.4401E-03
            4958               1     79.5319E-03     78.6316E-03    -37.5146E-03    -37.5117E-03
            4959               1     70.8520E-03     69.6067E-03    -32.7339E-03    -32.5912E-03
            4960               1     57.2410E-03     55.9384E-03    -26.6140E-03    -26.5311E-03
            4961               1     43.2819E-03     41.0656E-03    -21.7284E-03    -21.0922E-03
            4962               1     26.1271E-03     28.5812E-03    -11.0174E-03    -9.70118E-03
            4963               1     81.7746E-03     81.6063E-03    -47.1945E-03    -47.0908E-03
            4964               1     80.1538E-03     80.3250E-03    -46.2651E-03    -46.3438E-03
            4965               1     80.4920E-03     80.5487E-03    -46.4706E-03    -46.4456E-03
            4966               1     80.1254E-03     80.2943E-03    -46.2603E-03    -46.2719E-03
            4967               1     80.2729E-03     80.4828E-03    -46.3406E-03    -46.3425E-03
            4968               1     80.1989E-03     80.4606E-03    -46.2876E-03    -46.2904E-03
            4969               1     80.2535E-03     80.5725E-03    -46.3016E-03    -46.3057E-03
            4970               1     80.3146E-03     80.6791E-03    -46.3148E-03    -46.3161E-03
            4971               1     80.3153E-03     80.7423E-03    -46.2848E-03    -46.2907E-03
            4972               1     80.5349E-03     80.9976E-03    -46.3793E-03    -46.3781E-03
            4973               1     80.4270E-03     80.9647E-03    -46.2713E-03    -46.2810E-03
            4974               1     80.9884E-03     81.5377E-03    -46.5589E-03    -46.5521E-03
            4975               1     80.5767E-03     81.2309E-03    -46.2531E-03    -46.2706E-03
            4976               1     82.0196E-03     82.6273E-03    -47.0691E-03    -47.0515E-03
            4977               1     80.5803E-03     81.3773E-03    -46.1344E-03    -46.1835E-03
            4978               1     83.6231E-03     84.0757E-03    -47.9622E-03    -47.8306E-03
            4979               1     76.2409E-03     77.6640E-03    -43.2665E-03    -43.5937E-03
            4980               1     78.5142E-03     79.1313E-03    -43.8185E-03    -43.3146E-03
            4981               1     86.0154E-03     90.4406E-03    -26.7108E-03    -26.1900E-03
            4982               1     80.4346E-03     80.4933E-03    -46.4277E-03    -46.4713E-03
            4983               1     80.8679E-03     80.8148E-03    -46.6889E-03    -46.6483E-03
            4984               1     80.7338E-03     80.7947E-03    -46.6102E-03    -46.6277E-03
            4985               1     80.8948E-03     80.9745E-03    -46.6922E-03    -46.7081E-03
            4986               1     80.8742E-03     80.9384E-03    -46.6681E-03    -46.6654E-03
            4987               1     80.9260E-03     81.0421E-03    -46.6750E-03    -46.6908E-03
            4988               1     80.9694E-03     81.0749E-03    -46.6755E-03    -46.6754E-03
            4989               1     81.0148E-03     81.1635E-03    -46.6660E-03    -46.6799E-03
            4990               1     81.1178E-03     81.2599E-03    -46.6905E-03    -46.6910E-03
            4991               1     81.1553E-03     81.3419E-03    -46.6602E-03    -46.6751E-03
            4992               1     81.3465E-03     81.5187E-03    -46.7318E-03    -46.7298E-03
            4993               1     81.3432E-03     81.5729E-03    -46.6497E-03    -46.6680E-03
            4994               1     81.7311E-03     81.9306E-03    -46.8522E-03    -46.8479E-03
            4995               1     81.6860E-03     81.9544E-03    -46.6814E-03    -46.7000E-03
            4996               1     82.8437E-03     83.0614E-03    -47.4265E-03    -47.4162E-03
            4997               1     83.2637E-03     83.6257E-03    -47.3631E-03    -47.4399E-03
            4998               1     86.1883E-03     86.0767E-03    -49.4183E-03    -49.2003E-03
            4999               1     79.7451E-03     80.5459E-03    -44.0893E-03    -44.2996E-03
            5000               1     44.9365E-03     44.4169E-03    -14.9300E-03    -15.9568E-03
            5001               1     80.8076E-03     80.9198E-03    -46.6502E-03    -46.7184E-03
            5002               1     81.3207E-03     81.2155E-03    -46.9452E-03    -46.8897E-03
            5003               1     81.2602E-03     81.2905E-03    -46.8915E-03    -46.9292E-03
            5004               1     81.5014E-03     81.4410E-03    -47.0184E-03    -47.0089E-03
            5005               1     81.4895E-03     81.4569E-03    -46.9827E-03    -47.0011E-03
            5006               1     81.5933E-03     81.5112E-03    -47.0156E-03    -47.0133E-03
            5007               1     81.6368E-03     81.5671E-03    -47.0009E-03    -47.0164E-03
            5008               1     81.7094E-03     81.5987E-03    -47.0038E-03    -47.0040E-03
            5009               1     81.8088E-03     81.7037E-03    -47.0078E-03    -47.0217E-03
            5010               1     81.8382E-03     81.6965E-03    -46.9781E-03    -46.9785E-03
            5011               1     82.0239E-03     81.8869E-03    -47.0109E-03    -47.0258E-03
            5012               1     81.9196E-03     81.7446E-03    -46.9088E-03    -46.9067E-03
            5013               1     82.3241E-03     82.1589E-03    -47.0232E-03    -47.0428E-03
            5014               1     81.9008E-03     81.6886E-03    -46.7776E-03    -46.7677E-03
            5015               1     83.2658E-03     83.0362E-03    -47.3086E-03    -47.3241E-03
            5016               1     82.4136E-03     82.3471E-03    -46.9603E-03    -47.0236E-03
            5017               1     86.8623E-03     86.0746E-03    -48.7659E-03    -48.5653E-03
            5018               1     72.6820E-03     73.1912E-03    -41.3633E-03    -41.6964E-03
            5019               1     26.3847E-03     27.5510E-03    -14.8542E-03    -15.6908E-03
            5020               1     82.8822E-03     82.7646E-03    -47.8396E-03    -47.7580E-03
            5021               1     81.6036E-03     81.7037E-03    -47.0756E-03    -47.1650E-03
            5022               1     82.1508E-03     81.9945E-03    -47.3761E-03    -47.3383E-03
            5023               1     81.9236E-03     81.8075E-03    -47.2127E-03    -47.2312E-03
            5024               1     82.1801E-03     81.9784E-03    -47.3305E-03    -47.3250E-03
            5025               1     82.1774E-03     81.9464E-03    -47.2865E-03    -47.2952E-03
            5026               1     82.2945E-03     81.9997E-03    -47.3104E-03    -47.3096E-03
            5027               1     82.3922E-03     82.0568E-03    -47.3130E-03    -47.3188E-03
            5028               1     82.4129E-03     82.0228E-03    -47.2700E-03    -47.2715E-03
            5029               1     82.6260E-03     82.1879E-03    -47.3263E-03    -47.3300E-03
            5030               1     82.4555E-03     81.9732E-03    -47.1653E-03    -47.1694E-03
            5031               1     82.9196E-03     82.3767E-03    -47.3487E-03    -47.3489E-03
            5032               1     82.2296E-03     81.6617E-03    -46.8888E-03    -46.8972E-03
            5033               1     83.3801E-03     82.7185E-03    -47.4297E-03    -47.4217E-03
            5034               1     81.0737E-03     80.4566E-03    -46.0478E-03    -46.0830E-03
            5035               1     83.4790E-03     82.4830E-03    -47.1910E-03    -47.0788E-03
            5036               1     72.8725E-03     72.7340E-03    -41.1649E-03    -41.5021E-03
            5037               1     69.2300E-03     68.1668E-03    -39.5933E-03    -39.1618E-03
            5038               1     53.8710E-03     57.2812E-03    -21.7624E-03    -21.2203E-03
            5039               1     509.955E-06     641.391E-06    -273.000E-06    -349.892E-06
            5040               1     563.019E-06     623.923E-06    -321.376E-06    -345.042E-06
            5041               1     570.790E-06     600.470E-06    -328.811E-06    -330.457E-06
            5042               1     577.904E-06     620.778E-06    -333.624E-06    -337.284E-06
            5043               1     577.410E-06     623.602E-06    -333.056E-06    -334.177E-06
            5044               1     583.029E-06     638.953E-06    -335.095E-06    -336.963E-06
            5045               1     586.151E-06     648.848E-06    -334.767E-06    -336.719E-06
            5046               1     593.648E-06     662.937E-06    -336.117E-06    -338.099E-06
            5047               1     601.436E-06     675.844E-06    -336.689E-06    -338.797E-06
            5048               1     612.204E-06     691.046E-06    -338.392E-06    -340.191E-06
            5049               1     623.441E-06     706.100E-06    -339.405E-06    -341.724E-06
            5050               1     637.423E-06     722.536E-06    -341.856E-06    -343.356E-06
            5051               1     650.611E-06     738.421E-06    -342.612E-06    -345.355E-06
            5052               1     666.048E-06     754.866E-06    -345.168E-06    -346.245E-06
            5053               1     677.856E-06     768.885E-06    -342.677E-06    -346.392E-06
            5054               1     692.190E-06     784.161E-06    -342.693E-06    -342.971E-06
            5055               1     699.535E-06     795.236E-06    -326.794E-06    -332.929E-06
            5056               1     726.712E-06     825.405E-06    -323.872E-06    -318.814E-06
            5057               1     767.881E-06     877.938E-06    -272.377E-06    -281.716E-06
            5058               1     627.347E-06     632.274E-06    -360.462E-06    -364.304E-06
            5059               1     577.755E-06     626.540E-06    -332.117E-06    -355.475E-06
            5060               1     589.599E-06     631.712E-06    -340.381E-06    -354.000E-06
            5061               1     595.114E-06     623.361E-06    -343.158E-06    -345.992E-06
            5062               1     598.492E-06     638.010E-06    -343.867E-06    -349.119E-06
            5063               1     601.700E-06     644.539E-06    -343.668E-06    -348.392E-06
            5064               1     607.624E-06     656.658E-06    -344.061E-06    -349.481E-06
            5065               1     614.810E-06     667.507E-06    -344.482E-06    -349.801E-06
            5066               1     624.467E-06     680.641E-06    -345.540E-06    -350.650E-06
            5067               1     634.652E-06     694.692E-06    -346.108E-06    -351.932E-06
            5068               1     648.537E-06     709.141E-06    -348.461E-06    -352.857E-06
            5069               1     660.923E-06     726.335E-06    -348.988E-06    -355.641E-06
            5070               1     678.794E-06     741.564E-06    -353.133E-06    -356.619E-06
            5071               1     692.675E-06     761.712E-06    -353.315E-06    -361.346E-06
            5072               1     712.369E-06     776.081E-06    -358.821E-06    -361.349E-06
            5073               1     727.820E-06     799.512E-06    -356.398E-06    -366.716E-06
            5074               1     743.715E-06     810.461E-06    -358.925E-06    -359.962E-06
            5075               1     773.171E-06     844.838E-06    -343.014E-06    -355.320E-06
            5076               1     795.843E-06     864.596E-06    -331.519E-06    -320.690E-06
            5077               1     667.507E-06     538.448E-06    -385.206E-06    -309.698E-06
            5078               1     651.260E-06     618.069E-06    -375.520E-06    -355.593E-06
            5079               1     615.662E-06     628.944E-06    -354.478E-06    -357.973E-06
            5080               1     619.825E-06     640.333E-06    -356.060E-06    -360.209E-06
            5081               1     618.950E-06     646.252E-06    -353.437E-06    -360.501E-06
            5082               1     622.754E-06     654.235E-06    -352.642E-06    -360.390E-06
            5083               1     630.116E-06     662.493E-06    -353.307E-06    -360.304E-06
            5084               1     637.590E-06     672.813E-06    -353.132E-06    -360.525E-06
            5085               1     647.320E-06     684.581E-06    -353.631E-06    -361.185E-06
            5086               1     659.363E-06     696.767E-06    -354.893E-06    -361.475E-06
            5087               1     671.032E-06     712.493E-06    -355.100E-06    -363.563E-06
            5088               1     688.071E-06     726.256E-06    -358.472E-06    -363.975E-06
            5089               1     702.368E-06     747.224E-06    -359.045E-06    -368.813E-06
            5090               1     724.282E-06     762.321E-06    -365.309E-06    -369.557E-06
            5091               1     743.588E-06     790.872E-06    -367.580E-06    -379.006E-06
            5092               1     764.916E-06     804.023E-06    -374.286E-06    -377.638E-06
            5093               1     794.628E-06     841.376E-06    -377.239E-06    -389.482E-06
            5094               1     782.822E-06     834.545E-06    -359.296E-06    -367.239E-06
            5095               1     846.883E-06     870.362E-06    -338.719E-06    -345.095E-06
            5096               1     656.967E-06     641.046E-06    -379.283E-06    -369.844E-06
            5097               1     660.232E-06     592.515E-06    -380.535E-06    -340.954E-06
            5098               1     661.800E-06     637.474E-06    -380.252E-06    -365.160E-06
            5099               1     636.729E-06     654.517E-06    -363.457E-06    -372.978E-06
            5100               1     641.105E-06     656.566E-06    -363.065E-06    -371.148E-06
            5101               1     647.529E-06     662.655E-06    -363.211E-06    -370.936E-06
            5102               1     652.805E-06     669.355E-06    -361.902E-06    -370.425E-06
            5103               1     662.549E-06     678.137E-06    -362.598E-06    -370.375E-06
            5104               1     672.032E-06     687.536E-06    -362.474E-06    -370.123E-06
            5105               1     682.894E-06     700.109E-06    -362.419E-06    -371.048E-06
            5106               1     697.028E-06     711.245E-06    -363.957E-06    -370.595E-06
            5107               1     709.830E-06     728.858E-06    -363.673E-06    -373.436E-06
            5108               1     729.184E-06     741.927E-06    -367.587E-06    -372.990E-06
            5109               1     746.483E-06     767.083E-06    -368.677E-06    -379.639E-06
            5110               1     769.604E-06     781.742E-06    -374.602E-06    -378.862E-06
            5111               1     795.472E-06     815.784E-06    -379.489E-06    -390.574E-06
            5112               1     803.182E-06     821.223E-06    -374.546E-06    -381.111E-06
            5113               1     829.916E-06     844.131E-06    -376.591E-06    -383.342E-06
            5114               1     720.165E-06     778.800E-06    -273.757E-06    -314.379E-06
            5115               1     702.406E-06     570.258E-06    -404.846E-06    -329.189E-06
            5116               1     687.230E-06     657.878E-06    -396.085E-06    -378.115E-06
            5117               1     652.707E-06     663.367E-06    -372.745E-06    -381.977E-06
            5118               1     662.197E-06     664.641E-06    -374.952E-06    -381.820E-06
            5119               1     665.872E-06     667.342E-06    -373.509E-06    -380.915E-06
            5120               1     670.740E-06     671.129E-06    -372.152E-06    -380.375E-06
            5121               1     680.254E-06     676.543E-06    -372.846E-06    -379.612E-06
            5122               1     687.725E-06     683.207E-06    -371.799E-06    -379.173E-06
            5123               1     697.954E-06     692.127E-06    -371.670E-06    -379.103E-06
            5124               1     709.029E-06     700.326E-06    -371.563E-06    -378.105E-06
            5125               1     720.012E-06     713.179E-06    -370.551E-06    -378.950E-06
            5126               1     734.858E-06     722.442E-06    -371.582E-06    -377.078E-06
            5127               1     747.752E-06     740.561E-06    -370.168E-06    -379.598E-06
            5128               1     766.261E-06     750.957E-06    -372.202E-06    -376.510E-06
            5129               1     783.114E-06     775.022E-06    -371.569E-06    -381.397E-06
            5130               1     799.231E-06     783.481E-06    -370.131E-06    -374.008E-06
            5131               1     813.112E-06     802.028E-06    -368.950E-06    -376.511E-06
            5132               1     787.415E-06     780.601E-06    -335.315E-06    -345.846E-06
            5133               1     705.620E-06     710.005E-06    -303.578E-06    -306.058E-06
            5134               1     698.722E-06     722.439E-06    -401.431E-06    -413.628E-06
            5135               1     646.181E-06     701.607E-06    -366.643E-06    -404.684E-06
            5136               1     669.380E-06     689.599E-06    -378.428E-06    -398.127E-06
            5137               1     683.598E-06     673.278E-06    -383.318E-06    -388.134E-06
            5138               1     690.923E-06     678.840E-06    -383.470E-06    -390.265E-06
            5139               1     699.592E-06     679.496E-06    -383.834E-06    -388.280E-06
            5140               1     706.841E-06     684.560E-06    -382.952E-06    -388.482E-06
            5141               1     716.290E-06     689.818E-06    -382.666E-06    -387.715E-06
            5142               1     725.492E-06     695.657E-06    -381.768E-06    -386.802E-06
            5143               1     735.340E-06     704.047E-06    -380.646E-06    -386.379E-06
            5144               1     746.422E-06     710.217E-06    -379.731E-06    -384.105E-06
            5145               1     756.295E-06     721.583E-06    -377.321E-06    -383.810E-06
            5146               1     768.512E-06     726.908E-06    -375.740E-06    -379.262E-06
            5147               1     777.667E-06     740.093E-06    -371.225E-06    -378.232E-06
            5148               1     787.672E-06     742.075E-06    -366.257E-06    -369.091E-06
            5149               1     790.345E-06     748.617E-06    -356.926E-06    -363.219E-06
            5150               1     784.975E-06     736.922E-06    -339.442E-06    -342.259E-06
            5151               1     739.111E-06     695.688E-06    -312.737E-06    -315.700E-06
            5152               1     673.951E-06     616.536E-06    -266.298E-06    -261.560E-06
            5153               1     604.197E-06     755.548E-06    -319.331E-06    -420.285E-06
            5154               1     680.017E-06     717.629E-06    -380.172E-06    -410.492E-06
            5155               1     697.204E-06     682.483E-06    -389.620E-06    -393.500E-06
            5156               1     711.386E-06     692.281E-06    -394.508E-06    -399.662E-06
            5157               1     718.504E-06     686.037E-06    -394.417E-06    -395.591E-06
            5158               1     728.578E-06     691.186E-06    -395.301E-06    -397.409E-06
            5159               1     736.404E-06     692.734E-06    -394.398E-06    -396.158E-06
            5160               1     745.720E-06     696.835E-06    -393.833E-06    -395.785E-06
            5161               1     754.762E-06     701.617E-06    -392.811E-06    -394.834E-06
            5162               1     764.137E-06     705.998E-06    -391.299E-06    -393.083E-06
            5163               1     773.142E-06     712.695E-06    -389.388E-06    -391.659E-06
            5164               1     781.682E-06     716.012E-06    -386.266E-06    -387.798E-06
            5165               1     788.328E-06     722.408E-06    -382.011E-06    -384.516E-06
            5166               1     792.320E-06     720.231E-06    -374.752E-06    -375.963E-06
            5167               1     789.346E-06     718.702E-06    -363.988E-06    -366.560E-06
            5168               1     777.852E-06     699.916E-06    -346.408E-06    -347.294E-06
            5169               1     740.023E-06     664.214E-06    -317.332E-06    -319.774E-06
            5170               1     689.495E-06     600.744E-06    -282.720E-06    -280.043E-06
            5171               1     543.480E-06     459.137E-06    -211.568E-06    -213.709E-06
            5172               1     96.1191E-03     104.392E-03     47.4073E-03     48.8238E-03
            5173               1     107.063E-03     114.683E-03     52.9859E-03     52.8973E-03
            5174               1     114.041E-03     124.005E-03     53.5618E-03     54.3553E-03
            5175               1     124.040E-03     134.735E-03     55.7546E-03     55.9484E-03
            5176               1     132.229E-03     144.461E-03     55.4392E-03     55.7961E-03
            5177               1     141.750E-03     155.099E-03     55.8859E-03     56.1554E-03
            5178               1     150.789E-03     165.348E-03     55.2347E-03     55.5114E-03
            5179               1     160.389E-03     176.080E-03     54.8644E-03     55.1559E-03
            5180               1     169.792E-03     186.527E-03     53.8169E-03     54.0818E-03
            5181               1     179.290E-03     197.169E-03     52.6912E-03     52.9968E-03
            5182               1     188.452E-03     207.251E-03     50.8300E-03     51.0825E-03
            5183               1     197.339E-03     217.392E-03     48.5347E-03     48.8762E-03
            5184               1     205.516E-03     226.335E-03     45.0289E-03     45.2380E-03
            5185               1     212.877E-03     235.287E-03     40.5289E-03     40.9982E-03
            5186               1     219.568E-03     242.356E-03     34.0286E-03     34.0455E-03
            5187               1     223.047E-03     247.876E-03     24.6431E-03     25.3429E-03
            5188               1     230.873E-03     255.974E-03     15.0794E-03     15.1052E-03
            5189               1     230.112E-03     259.117E-03    -6.44424E-03    -4.13009E-03
            5190               1     280.881E-03     319.395E-03    -14.5778E-03    -7.06139E-03
            5191               1     94.4527E-03     99.3163E-03     47.8430E-03     47.7642E-03
            5192               1     101.421E-03     109.514E-03     48.7005E-03     50.9261E-03
            5193               1     111.254E-03     118.508E-03     51.5252E-03     52.0520E-03
            5194               1     119.618E-03     127.825E-03     50.8813E-03     51.9321E-03
            5195               1     129.022E-03     137.914E-03     51.4424E-03     52.1646E-03
            5196               1     138.850E-03     148.351E-03     50.9271E-03     51.6525E-03
            5197               1     148.896E-03     159.183E-03     50.8016E-03     51.5690E-03
            5198               1     159.402E-03     170.226E-03     50.2277E-03     50.9095E-03
            5199               1     169.941E-03     181.497E-03     49.6534E-03     50.4435E-03
            5200               1     180.731E-03     192.741E-03     48.7412E-03     49.4036E-03
            5201               1     191.483E-03     204.254E-03     47.5212E-03     48.3547E-03
            5202               1     202.261E-03     215.338E-03     45.8505E-03     46.4654E-03
            5203               1     212.959E-03     227.002E-03     43.5188E-03     44.4839E-03
            5204               1     223.743E-03     237.694E-03     40.2564E-03     40.7269E-03
            5205               1     233.558E-03     249.036E-03     35.9703E-03     37.2493E-03
            5206               1     246.202E-03     261.201E-03     28.8165E-03     29.0121E-03
            5207               1     250.146E-03     265.875E-03     21.1477E-03     22.3993E-03
            5208               1     280.681E-03     294.179E-03     9.05694E-03     12.1600E-03
            5209               1     287.118E-03     276.349E-03     34.2919E-03     30.1867E-03
            5210               1     88.2492E-03     94.7491E-03     43.5554E-03     46.2514E-03
            5211               1     99.4589E-03     104.271E-03     47.8781E-03     48.6158E-03
            5212               1     108.507E-03     112.858E-03     47.3815E-03     48.6604E-03
            5213               1     116.585E-03     121.635E-03     47.5293E-03     48.4662E-03
            5214               1     126.852E-03     131.587E-03     46.9397E-03     47.9168E-03
            5215               1     136.628E-03     141.889E-03     46.7340E-03     47.7386E-03
            5216               1     147.869E-03     153.121E-03     46.4618E-03     47.3692E-03
            5217               1     158.853E-03     164.458E-03     46.2276E-03     47.2537E-03
            5218               1     170.660E-03     176.304E-03     46.0096E-03     46.8923E-03
            5219               1     182.366E-03     188.335E-03     45.6189E-03     46.6792E-03
            5220               1     194.604E-03     200.542E-03     45.2842E-03     46.1262E-03
            5221               1     206.888E-03     213.245E-03     44.5941E-03     45.7183E-03
            5222               1     219.676E-03     225.731E-03     43.8807E-03     44.6573E-03
            5223               1     232.726E-03     239.587E-03     42.9308E-03     44.1846E-03
            5224               1     246.709E-03     252.671E-03     40.6164E-03     41.3791E-03
            5225               1     261.378E-03     268.565E-03     40.5600E-03     41.9264E-03
            5226               1     279.067E-03     285.842E-03     31.1060E-03     31.8321E-03
            5227               1     291.110E-03     287.429E-03     42.8269E-03     38.1309E-03
            5228               1     268.937E-03     278.484E-03     36.0910E-03     32.0634E-03
            5229               1     81.8258E-03     85.8461E-03     40.7612E-03     42.3990E-03
            5230               1     96.8327E-03     96.4915E-03     43.4443E-03     43.7038E-03
            5231               1     103.644E-03     105.557E-03     43.0997E-03     44.1890E-03
            5232               1     115.019E-03     115.020E-03     43.0736E-03     43.8039E-03
            5233               1     123.875E-03     124.577E-03     42.4635E-03     43.5058E-03
            5234               1     135.618E-03     135.606E-03     42.4610E-03     43.3525E-03
            5235               1     146.540E-03     146.577E-03     42.2791E-03     43.3094E-03
            5236               1     158.891E-03     158.556E-03     42.4939E-03     43.3907E-03
            5237               1     170.934E-03     170.537E-03     42.5615E-03     43.6103E-03
            5238               1     183.818E-03     183.094E-03     43.0077E-03     43.8701E-03
            5239               1     196.634E-03     195.882E-03     43.3011E-03     44.3865E-03
            5240               1     210.160E-03     209.002E-03     44.0900E-03     44.9073E-03
            5241               1     223.901E-03     222.875E-03     44.8901E-03     45.9779E-03
            5242               1     238.330E-03     236.582E-03     45.9517E-03     46.8034E-03
            5243               1     254.628E-03     253.305E-03     48.5612E-03     49.5417E-03
            5244               1     269.377E-03     267.189E-03     48.3551E-03     49.5578E-03
            5245               1     296.490E-03     293.357E-03     58.0587E-03     58.2589E-03
            5246               1     290.860E-03     297.443E-03     45.9212E-03     43.9627E-03
            5247               1     287.266E-03     280.077E-03     46.3504E-03     39.6819E-03
            5248               1     77.3932E-03     71.7182E-03     35.7817E-03     34.0129E-03
            5249               1     86.6822E-03     85.4290E-03     35.9495E-03     37.1607E-03
            5250               1     101.590E-03     96.7101E-03     38.1247E-03     38.0462E-03
            5251               1     110.148E-03     106.549E-03     37.3060E-03     38.2084E-03
            5252               1     122.681E-03     117.642E-03     37.9940E-03     38.5668E-03
            5253               1     133.424E-03     128.219E-03     37.7336E-03     38.5387E-03
            5254               1     146.067E-03     140.087E-03     38.2694E-03     38.9582E-03
            5255               1     158.140E-03     151.726E-03     38.4719E-03     39.2706E-03
            5256               1     171.190E-03     164.166E-03     39.2689E-03     39.9434E-03
            5257               1     184.047E-03     176.596E-03     39.9781E-03     40.7985E-03
            5258               1     197.557E-03     189.548E-03     41.3644E-03     42.0014E-03
            5259               1     211.075E-03     202.709E-03     42.9141E-03     43.7425E-03
            5260               1     225.209E-03     216.287E-03     45.3379E-03     45.9712E-03
            5261               1     239.979E-03     230.792E-03     48.6520E-03     49.3148E-03
            5262               1     254.553E-03     244.810E-03     52.6169E-03     53.4337E-03
            5263               1     274.718E-03     264.262E-03     60.0512E-03     60.2431E-03
            5264               1     284.533E-03     275.652E-03     65.8054E-03     67.0623E-03
            5265               1     325.741E-03     317.665E-03     74.4321E-03     78.1615E-03
            5266               1     293.295E-03     308.784E-03     48.9886E-03     49.2029E-03
            5267               1     60.7455E-03     54.7832E-03     24.9429E-03     25.6788E-03
            5268               1     82.3557E-03     73.0365E-03     30.4946E-03     29.7523E-03
            5269               1     93.8112E-03     85.7633E-03     30.5128E-03     31.0738E-03
            5270               1     108.177E-03     98.3790E-03     32.6322E-03     32.6729E-03
            5271               1     119.515E-03     109.279E-03     32.4885E-03     32.8492E-03
            5272               1     132.514E-03     121.176E-03     33.4427E-03     33.6795E-03
            5273               1     144.678E-03     132.534E-03     33.5995E-03     33.9167E-03
            5274               1     157.701E-03     144.671E-03     34.5007E-03     34.7633E-03
            5275               1     170.467E-03     156.615E-03     35.2119E-03     35.5250E-03
            5276               1     183.649E-03     169.049E-03     36.6111E-03     36.8651E-03
            5277               1     196.781E-03     181.381E-03     38.2300E-03     38.5495E-03
            5278               1     210.098E-03     194.101E-03     40.6971E-03     40.9381E-03
            5279               1     223.560E-03     206.812E-03     43.9398E-03     44.2380E-03
            5280               1     237.080E-03     219.965E-03     48.3958E-03     48.6513E-03
            5281               1     251.408E-03     233.705E-03     54.4609E-03     54.5843E-03
            5282               1     265.320E-03     247.816E-03     63.0021E-03     63.2949E-03
            5283               1     283.438E-03     265.180E-03     70.7750E-03     71.3067E-03
            5284               1     305.227E-03     286.921E-03     90.0165E-03     91.4815E-03
            5285               1     370.946E-03     344.423E-03     82.3270E-03     93.2024E-03
            5286               1     14.1102E-03     14.4511E-03     7.80519E-03     7.74673E-03
            5287               1     23.3305E-03     24.3664E-03     7.80519E-03     7.74672E-03
            5288               1     36.5772E-03     37.7752E-03     7.80519E-03     7.74672E-03
            5289               1     50.7921E-03     52.0441E-03     7.80519E-03     7.74673E-03
            5290               1     65.3464E-03     66.6225E-03     7.80519E-03     7.74673E-03
            5291               1     80.0551E-03     81.3444E-03     7.80519E-03     7.74672E-03
            5292               1     94.8465E-03     96.1437E-03     7.80519E-03     7.74673E-03
            5293               1     109.687E-03     110.990E-03     7.80519E-03     7.74672E-03
            5294               1     124.559E-03     125.866E-03     7.80519E-03     7.74673E-03
            5295               1     139.453E-03     140.762E-03     7.80519E-03     7.74673E-03
            5296               1     154.362E-03     155.673E-03     7.80519E-03     7.74673E-03
            5297               1     169.282E-03     170.595E-03     7.80519E-03     7.74673E-03
            5298               1     184.211E-03     185.525E-03     7.80519E-03     7.74672E-03
            5299               1     199.147E-03     200.461E-03     7.80519E-03     7.74673E-03
            5300               1     214.087E-03     215.403E-03     7.80519E-03     7.74672E-03
            5301               1     229.032E-03     230.348E-03     7.80519E-03     7.74673E-03
            5302               1     243.980E-03     245.297E-03     7.80519E-03     7.74673E-03
            5303               1     258.931E-03     260.249E-03     7.80519E-03     7.74673E-03
            5304               1     273.885E-03     275.203E-03     7.80519E-03     7.74673E-03
            5305               1     95.8212E-03     107.149E-03     34.6521E-03     33.4769E-03
            5306               1     93.4661E-03     98.6255E-03     46.6444E-03     44.9381E-03
            5307               1     73.0397E-03     71.6620E-03     23.3786E-03     24.9553E-03
            5308               1     87.1624E-03     93.3038E-03     41.7626E-03     43.2279E-03
            5309               1     37.6249E-03     47.3709E-03     13.3486E-03     14.6016E-03
            5310               1     68.8462E-03     74.4353E-03     32.6235E-03     35.6618E-03
            5311               1     16.7460E-03     19.9866E-03     6.64041E-03     9.02354E-03
            5312               1     52.3933E-03     60.8050E-03     27.4855E-03     30.7964E-03
            5313               1     28.2184E-03     25.4001E-03     3.73940E-03     7.27238E-03
            5314               1     54.3855E-03     53.9882E-03     30.6082E-03     30.4861E-03
            5315               1     47.8480E-03     66.3061E-03     8.94860E-03     7.57377E-03
            5316               1     49.1656E-03     40.0112E-03     25.7240E-03     22.4959E-03
            5317               1     29.6314E-03     28.4110E-03     7.80519E-03     7.74673E-03
            5318               1     17.4830E-03     16.5925E-03     7.80519E-03     7.74673E-03
            5319               1     912.440E-06     1.04735E-03    -299.046E-06    -263.679E-06
            5320               1     1.43259E-03     1.67045E-03    -147.210E-06    -114.078E-06
            5321               1     1.01520E-03     1.04498E-03    -293.138E-06    -282.263E-06
            5322               1     1.25179E-03     1.14685E-03    -7.36958E-06    -33.7175E-06
            5323               1     812.097E-06     842.881E-06    -163.254E-06    -208.387E-06
            5324               1     865.551E-06     938.674E-06     67.2096E-06     52.8121E-06
            5325               1     624.575E-06     652.214E-06    -148.075E-06    -161.758E-06
            5326               1     632.680E-06     615.038E-06     109.486E-06     88.9136E-06
            5327               1     435.798E-06     486.435E-06    -121.211E-06    -165.009E-06
            5328               1     370.590E-06     334.984E-06     116.626E-06     95.2713E-06
            5329               1     421.049E-06     398.324E-06    -201.968E-06    -191.817E-06
            5330               1     178.435E-06     155.774E-06     94.5184E-06     62.0908E-06
            5331               1     417.259E-06     303.421E-06    -178.282E-06    -152.636E-06
            5332               1     294.960E-06     503.646E-06     3.92666E-06     17.6286E-06
            5333               1     183.790E-03     184.812E-03    -33.3934E-03    -33.4519E-03
            5334               1     183.953E-03     216.640E-03    -49.2517E-03    -49.6211E-03
            5335               1     236.471E-03     191.110E-03    -48.6034E-03    -48.2500E-03
            5336               1     195.352E-03     213.177E-03    -49.5294E-03    -47.8682E-03
            5337               1     193.193E-03     209.213E-03    -47.6671E-03    -48.8393E-03
            5338               1     220.484E-03     182.617E-03    -50.8423E-03    -48.0595E-03
            5339               1     171.382E-03     190.274E-03    -47.3121E-03    -44.0555E-03
            5340               1     159.660E-03     160.339E-03    -29.9242E-03    -29.9827E-03
            5341               1     155.265E-03     188.619E-03    -41.0068E-03    -41.9953E-03
            5342               1     199.234E-03     157.304E-03    -42.1506E-03    -40.7168E-03
            5343               1     161.151E-03     176.094E-03    -42.5382E-03    -40.3951E-03
            5344               1     151.949E-03     161.784E-03    -41.0931E-03    -41.9515E-03
            5345               1     168.818E-03     144.607E-03    -43.3587E-03    -42.4844E-03
            5346               1     132.050E-03     139.325E-03    -41.0502E-03    -37.7214E-03
            5347               1     131.677E-03     131.971E-03    -24.6749E-03    -24.7334E-03
            5348               1     121.509E-03     154.526E-03    -30.3137E-03    -31.1345E-03
            5349               1     158.371E-03     120.364E-03    -28.7980E-03    -28.7388E-03
            5350               1     116.094E-03     131.016E-03    -30.0410E-03    -28.9476E-03
            5351               1     108.622E-03     114.622E-03    -29.1229E-03    -31.3994E-03
            5352               1     110.858E-03     99.8067E-03    -34.0112E-03    -30.7741E-03
            5353               1     90.3860E-03     84.9617E-03    -31.2943E-03    -26.7522E-03
            5354               1     101.755E-03     101.644E-03    -18.0033E-03    -18.0618E-03
            5355               1     86.3520E-03     116.956E-03    -11.8734E-03    -15.1507E-03
            5356               1     110.671E-03     80.1650E-03    -12.7481E-03    -15.2492E-03
            5357               1     77.8608E-03     91.1075E-03    -15.1392E-03    -15.3076E-03
            5358               1     63.1616E-03     64.3869E-03    -13.5907E-03    -14.8968E-03
            5359               1     51.4987E-03     53.2085E-03    -17.5204E-03    -12.7810E-03
            5360               1     38.5029E-03     19.0225E-03    -13.4427E-03    -6.94232E-03
            5361               1     72.1050E-03     71.5833E-03    -10.3640E-03    -10.4225E-03
            5362               1     58.7767E-03     84.2174E-03    -486.304E-06    -1.14766E-03
            5363               1     88.5378E-03     54.6856E-03     2.49768E-03     1.40974E-03
            5364               1     48.2312E-03     60.1391E-03     4.37109E-03     8.30919E-03
            5365               1     32.6160E-03     25.6522E-03     8.38621E-03     10.0721E-03
            5366               1     27.7000E-03     20.8952E-03     10.2438E-03     9.37461E-03
            5367               1     26.6742E-03     47.4602E-03     13.6275E-03     15.2429E-03
            5368               1     45.4865E-03     44.5573E-03    -2.27763E-03    -2.33609E-03
            5369               1     84.5324E-03     105.201E-03     24.5995E-03     24.7824E-03
            5370               1     83.7634E-03     73.2921E-03     32.1979E-03     35.4451E-03
            5371               1     58.3391E-03     68.3851E-03     33.3119E-03     36.7821E-03
            5372               1     65.4214E-03     71.2362E-03     37.4130E-03     38.3651E-03
            5373               1     97.7853E-03     83.2749E-03     45.9307E-03     43.0862E-03
            5374               1     102.006E-03     116.067E-03     45.5689E-03     41.8370E-03
            5431               1     767.881E-06     877.938E-06    -272.377E-06    -281.716E-06
            5432               1     726.712E-06     825.405E-06    -323.872E-06    -318.814E-06
            5433               1     699.535E-06     795.236E-06    -326.794E-06    -332.929E-06
            5434               1     692.190E-06     784.161E-06    -342.693E-06    -342.971E-06
            5435               1     677.856E-06     768.885E-06    -342.677E-06    -346.392E-06
            5436               1     666.048E-06     754.866E-06    -345.168E-06    -346.245E-06
            5437               1     650.611E-06     738.421E-06    -342.612E-06    -345.355E-06
            5438               1     637.423E-06     722.536E-06    -341.856E-06    -343.356E-06
            5439               1     623.441E-06     706.100E-06    -339.405E-06    -341.724E-06
            5440               1     612.204E-06     691.046E-06    -338.392E-06    -340.191E-06
            5441               1     601.436E-06     675.844E-06    -336.689E-06    -338.797E-06
            5442               1     593.648E-06     662.937E-06    -336.117E-06    -338.099E-06
            5443               1     586.151E-06     648.848E-06    -334.767E-06    -336.719E-06
            5444               1     583.029E-06     638.953E-06    -335.095E-06    -336.963E-06
            5445               1     577.410E-06     623.602E-06    -333.056E-06    -334.177E-06
            5446               1     577.904E-06     620.778E-06    -333.624E-06    -337.284E-06
            5447               1     570.790E-06     600.470E-06    -328.811E-06    -330.457E-06
            5448               1     563.019E-06     623.923E-06    -321.376E-06    -345.042E-06
            5449               1     509.955E-06     641.391E-06    -273.000E-06    -349.892E-06
            5450               1     795.843E-06     864.596E-06    -331.519E-06    -320.690E-06
            5451               1     773.171E-06     844.838E-06    -343.014E-06    -355.320E-06
            5452               1     743.715E-06     810.461E-06    -358.925E-06    -359.962E-06
            5453               1     727.820E-06     799.512E-06    -356.398E-06    -366.716E-06
            5454               1     712.369E-06     776.081E-06    -358.821E-06    -361.349E-06
            5455               1     692.675E-06     761.712E-06    -353.315E-06    -361.346E-06
            5456               1     678.794E-06     741.564E-06    -353.133E-06    -356.619E-06
            5457               1     660.923E-06     726.335E-06    -348.988E-06    -355.641E-06
            5458               1     648.537E-06     709.141E-06    -348.461E-06    -352.857E-06
            5459               1     634.652E-06     694.692E-06    -346.108E-06    -351.932E-06
            5460               1     624.467E-06     680.641E-06    -345.540E-06    -350.650E-06
            5461               1     614.810E-06     667.507E-06    -344.482E-06    -349.801E-06
            5462               1     607.624E-06     656.658E-06    -344.061E-06    -349.481E-06
            5463               1     601.700E-06     644.539E-06    -343.668E-06    -348.392E-06
            5464               1     598.492E-06     638.010E-06    -343.867E-06    -349.119E-06
            5465               1     595.114E-06     623.361E-06    -343.158E-06    -345.992E-06
            5466               1     589.599E-06     631.712E-06    -340.381E-06    -354.000E-06
            5467               1     577.755E-06     626.540E-06    -332.117E-06    -355.475E-06
            5468               1     627.347E-06     632.274E-06    -360.462E-06    -364.304E-06
            5469               1     846.883E-06     870.362E-06    -338.719E-06    -345.095E-06
            5470               1     782.822E-06     834.545E-06    -359.296E-06    -367.239E-06
            5471               1     794.628E-06     841.376E-06    -377.239E-06    -389.482E-06
            5472               1     764.916E-06     804.023E-06    -374.286E-06    -377.638E-06
            5473               1     743.588E-06     790.872E-06    -367.580E-06    -379.006E-06
            5474               1     724.282E-06     762.321E-06    -365.309E-06    -369.557E-06
            5475               1     702.368E-06     747.224E-06    -359.045E-06    -368.813E-06
            5476               1     688.071E-06     726.256E-06    -358.472E-06    -363.975E-06
            5477               1     671.032E-06     712.493E-06    -355.100E-06    -363.563E-06
            5478               1     659.363E-06     696.767E-06    -354.893E-06    -361.475E-06
            5479               1     647.320E-06     684.581E-06    -353.631E-06    -361.185E-06
            5480               1     637.590E-06     672.813E-06    -353.132E-06    -360.525E-06
            5481               1     630.116E-06     662.493E-06    -353.307E-06    -360.304E-06
            5482               1     622.754E-06     654.235E-06    -352.642E-06    -360.390E-06
            5483               1     618.950E-06     646.252E-06    -353.437E-06    -360.501E-06
            5484               1     619.825E-06     640.333E-06    -356.060E-06    -360.209E-06
            5485               1     615.662E-06     628.944E-06    -354.478E-06    -357.973E-06
            5486               1     651.260E-06     618.069E-06    -375.520E-06    -355.593E-06
            5487               1     667.507E-06     538.448E-06    -385.206E-06    -309.698E-06
            5488               1     720.165E-06     778.800E-06    -273.757E-06    -314.379E-06
            5489               1     829.916E-06     844.131E-06    -376.591E-06    -383.342E-06
            5490               1     803.182E-06     821.223E-06    -374.546E-06    -381.111E-06
            5491               1     795.472E-06     815.784E-06    -379.489E-06    -390.574E-06
            5492               1     769.604E-06     781.742E-06    -374.602E-06    -378.862E-06
            5493               1     746.483E-06     767.083E-06    -368.677E-06    -379.639E-06
            5494               1     729.184E-06     741.927E-06    -367.587E-06    -372.990E-06
            5495               1     709.830E-06     728.858E-06    -363.673E-06    -373.436E-06
            5496               1     697.028E-06     711.245E-06    -363.957E-06    -370.595E-06
            5497               1     682.894E-06     700.109E-06    -362.419E-06    -371.048E-06
            5498               1     672.032E-06     687.536E-06    -362.474E-06    -370.123E-06
            5499               1     662.549E-06     678.137E-06    -362.598E-06    -370.375E-06
            5500               1     652.805E-06     669.355E-06    -361.902E-06    -370.425E-06
            5501               1     647.529E-06     662.655E-06    -363.211E-06    -370.936E-06
            5502               1     641.105E-06     656.566E-06    -363.065E-06    -371.148E-06
            5503               1     636.729E-06     654.517E-06    -363.457E-06    -372.978E-06
            5504               1     661.800E-06     637.474E-06    -380.252E-06    -365.160E-06
            5505               1     660.232E-06     592.515E-06    -380.535E-06    -340.954E-06
            5506               1     656.967E-06     641.046E-06    -379.283E-06    -369.844E-06
            5507               1     705.620E-06     710.005E-06    -303.578E-06    -306.058E-06
            5508               1     787.415E-06     780.601E-06    -335.315E-06    -345.846E-06
            5509               1     813.112E-06     802.028E-06    -368.950E-06    -376.511E-06
            5510               1     799.231E-06     783.481E-06    -370.131E-06    -374.008E-06
            5511               1     783.114E-06     775.022E-06    -371.569E-06    -381.397E-06
            5512               1     766.261E-06     750.957E-06    -372.202E-06    -376.510E-06
            5513               1     747.752E-06     740.561E-06    -370.168E-06    -379.598E-06
            5514               1     734.858E-06     722.442E-06    -371.582E-06    -377.078E-06
            5515               1     720.012E-06     713.179E-06    -370.551E-06    -378.950E-06
            5516               1     709.029E-06     700.326E-06    -371.563E-06    -378.105E-06
            5517               1     697.954E-06     692.127E-06    -371.670E-06    -379.103E-06
            5518               1     687.725E-06     683.207E-06    -371.799E-06    -379.173E-06
            5519               1     680.254E-06     676.543E-06    -372.846E-06    -379.612E-06
            5520               1     670.740E-06     671.129E-06    -372.152E-06    -380.375E-06
            5521               1     665.872E-06     667.342E-06    -373.509E-06    -380.915E-06
            5522               1     662.197E-06     664.641E-06    -374.952E-06    -381.820E-06
            5523               1     652.707E-06     663.367E-06    -372.745E-06    -381.977E-06
            5524               1     687.230E-06     657.878E-06    -396.085E-06    -378.115E-06
            5525               1     702.406E-06     570.258E-06    -404.846E-06    -329.189E-06
            5526               1     673.951E-06     616.536E-06    -266.298E-06    -261.560E-06
            5527               1     739.111E-06     695.688E-06    -312.737E-06    -315.700E-06
            5528               1     784.975E-06     736.922E-06    -339.442E-06    -342.259E-06
            5529               1     790.345E-06     748.617E-06    -356.926E-06    -363.219E-06
            5530               1     787.672E-06     742.075E-06    -366.257E-06    -369.091E-06
            5531               1     777.667E-06     740.093E-06    -371.225E-06    -378.232E-06
            5532               1     768.512E-06     726.908E-06    -375.740E-06    -379.262E-06
            5533               1     756.295E-06     721.583E-06    -377.321E-06    -383.810E-06
            5534               1     746.422E-06     710.217E-06    -379.731E-06    -384.105E-06
            5535               1     735.340E-06     704.047E-06    -380.646E-06    -386.379E-06
            5536               1     725.492E-06     695.657E-06    -381.768E-06    -386.802E-06
            5537               1     716.290E-06     689.818E-06    -382.666E-06    -387.715E-06
            5538               1     706.841E-06     684.560E-06    -382.952E-06    -388.482E-06
            5539               1     699.592E-06     679.496E-06    -383.834E-06    -388.280E-06
            5540               1     690.923E-06     678.840E-06    -383.470E-06    -390.265E-06
            5541               1     683.598E-06     673.278E-06    -383.318E-06    -388.134E-06
            5542               1     669.380E-06     689.599E-06    -378.428E-06    -398.127E-06
            5543               1     646.181E-06     701.607E-06    -366.643E-06    -404.684E-06
            5544               1     698.722E-06     722.439E-06    -401.431E-06    -413.628E-06
            5545               1     543.480E-06     459.137E-06    -211.568E-06    -213.709E-06
            5546               1     689.495E-06     600.744E-06    -282.720E-06    -280.043E-06
            5547               1     740.023E-06     664.214E-06    -317.332E-06    -319.774E-06
            5548               1     777.852E-06     699.916E-06    -346.408E-06    -347.294E-06
            5549               1     789.346E-06     718.702E-06    -363.988E-06    -366.560E-06
            5550               1     792.320E-06     720.231E-06    -374.752E-06    -375.963E-06
            5551               1     788.328E-06     722.408E-06    -382.011E-06    -384.516E-06
            5552               1     781.682E-06     716.012E-06    -386.266E-06    -387.798E-06
            5553               1     773.142E-06     712.695E-06    -389.388E-06    -391.659E-06
            5554               1     764.137E-06     705.998E-06    -391.299E-06    -393.083E-06
            5555               1     754.762E-06     701.617E-06    -392.811E-06    -394.834E-06
            5556               1     745.720E-06     696.835E-06    -393.833E-06    -395.785E-06
            5557               1     736.404E-06     692.734E-06    -394.398E-06    -396.158E-06
            5558               1     728.578E-06     691.186E-06    -395.301E-06    -397.409E-06
            5559               1     718.504E-06     686.037E-06    -394.417E-06    -395.591E-06
            5560               1     711.386E-06     692.281E-06    -394.508E-06    -399.662E-06
            5561               1     697.204E-06     682.483E-06    -389.620E-06    -393.500E-06
            5562               1     680.017E-06     717.629E-06    -380.172E-06    -410.492E-06
            5563               1     604.197E-06     755.548E-06    -319.331E-06    -420.285E-06
            5564               1     402.150E-03     409.680E-03     65.0520E-03     63.2195E-03
            5565               1     285.275E-03     287.862E-03     77.2199E-03     74.9970E-03
            5566               1     240.330E-03     241.652E-03     56.3221E-03     56.5675E-03
            5567               1     209.161E-03     209.769E-03     56.8856E-03     56.1618E-03
            5568               1     183.242E-03     183.379E-03     48.6327E-03     48.7543E-03
            5569               1     162.337E-03     162.286E-03     47.4527E-03     47.1910E-03
            5570               1     142.080E-03     141.882E-03     42.9459E-03     43.0042E-03
            5571               1     124.415E-03     124.142E-03     41.5604E-03     41.4551E-03
            5572               1     106.942E-03     106.695E-03     38.8567E-03     38.8998E-03
            5573               1     91.9572E-03     91.6438E-03     37.9408E-03     37.8859E-03
            5574               1     78.1419E-03     78.0024E-03     36.5084E-03     36.5582E-03
            5575               1     68.6659E-03     68.4306E-03     36.3764E-03     36.3288E-03
            5576               1     63.0144E-03     63.1206E-03     36.0310E-03     36.1104E-03
            5577               1     64.6328E-03     64.5534E-03     36.8805E-03     36.8012E-03
            5578               1     70.9570E-03     71.2535E-03     37.4985E-03     37.6526E-03
            5579               1     83.1298E-03     83.0941E-03     39.6260E-03     39.4060E-03
            5580               1     97.0862E-03     97.4521E-03     40.9700E-03     41.3093E-03
            5581               1     115.068E-03     115.014E-03     45.1717E-03     44.4352E-03
            5582               1     133.341E-03     134.194E-03     46.5724E-03     47.2879E-03
            5583               1     335.551E-03     328.424E-03     15.3439E-03     15.9823E-03
            5584               1     317.816E-03     315.588E-03     64.8851E-03     63.4241E-03
            5585               1     247.476E-03     247.361E-03     63.7357E-03     62.1163E-03
            5586               1     223.018E-03     222.567E-03     58.0222E-03     57.9165E-03
            5587               1     192.939E-03     192.614E-03     56.3627E-03     55.6013E-03
            5588               1     172.224E-03     171.935E-03     51.4894E-03     51.5341E-03
            5589               1     151.223E-03     150.781E-03     49.7215E-03     49.3809E-03
            5590               1     132.862E-03     132.606E-03     46.4620E-03     46.5365E-03
            5591               1     115.773E-03     115.316E-03     45.1697E-03     44.9986E-03
            5592               1     100.126E-03     99.9611E-03     43.1979E-03     43.2943E-03
            5593               1     87.5036E-03     87.0899E-03     42.6551E-03     42.5351E-03
            5594               1     77.4945E-03     77.5794E-03     41.7638E-03     41.9066E-03
            5595               1     73.4293E-03     73.1216E-03     42.1055E-03     41.9650E-03
            5596               1     73.8958E-03     74.3753E-03     42.1694E-03     42.4090E-03
            5597               1     81.3223E-03     81.1072E-03     43.5670E-03     43.2935E-03
            5598               1     92.0154E-03     92.7412E-03     44.4557E-03     44.8707E-03
            5599               1     107.082E-03     106.832E-03     47.2492E-03     46.5296E-03
            5600               1     124.402E-03     125.000E-03     48.7284E-03     49.3511E-03
            5601               1     143.288E-03     142.872E-03     53.3049E-03     51.4348E-03
            5602               1     290.061E-03     291.496E-03     14.1524E-03     13.7925E-03
            5603               1     280.570E-03     278.081E-03     33.5898E-03     34.2553E-03
            5604               1     264.676E-03     262.118E-03     58.5155E-03     57.7506E-03
            5605               1     222.497E-03     221.844E-03     57.6470E-03     56.7898E-03
            5606               1     204.434E-03     203.451E-03     57.4431E-03     57.3180E-03
            5607               1     178.055E-03     177.413E-03     55.3633E-03     54.8249E-03
            5608               1     159.826E-03     159.353E-03     52.8508E-03     52.8937E-03
            5609               1     139.811E-03     139.203E-03     51.1344E-03     50.8413E-03
            5610               1     123.039E-03     122.767E-03     49.0672E-03     49.1636E-03
            5611               1     107.528E-03     106.972E-03     48.1071E-03     47.9197E-03
            5612               1     94.5383E-03     94.4798E-03     46.8819E-03     47.0213E-03
            5613               1     85.6606E-03     85.1874E-03     46.7270E-03     46.5545E-03
            5614               1     80.7223E-03     81.0494E-03     46.3516E-03     46.5660E-03
            5615               1     82.3896E-03     82.0791E-03     47.0209E-03     46.7842E-03
            5616               1     88.5130E-03     89.1774E-03     47.4650E-03     47.7837E-03
            5617               1     99.7429E-03     99.6652E-03     48.9796E-03     48.5493E-03
            5618               1     114.534E-03     114.915E-03     50.2013E-03     50.5459E-03
            5619               1     130.158E-03     130.506E-03     52.1265E-03     51.3780E-03
            5620               1     152.329E-03     150.781E-03     54.1443E-03     53.7400E-03
            5621               1     271.132E-03     267.770E-03     9.35116E-03     9.49678E-03
            5622               1     261.022E-03     259.874E-03     32.5051E-03     31.9753E-03
            5623               1     244.366E-03     243.116E-03     42.3586E-03     42.6878E-03
            5624               1     231.534E-03     229.454E-03     55.9788E-03     55.5607E-03
            5625               1     202.416E-03     201.647E-03     55.1694E-03     54.7731E-03
            5626               1     186.183E-03     185.202E-03     56.4415E-03     56.3853E-03
            5627               1     163.181E-03     162.457E-03     54.6416E-03     54.3080E-03
            5628               1     146.272E-03     145.788E-03     53.5567E-03     53.6269E-03
            5629               1     128.084E-03     127.415E-03     52.3294E-03     52.0925E-03
            5630               1     113.304E-03     113.071E-03     51.2277E-03     51.3422E-03
            5631               1     100.591E-03     99.9864E-03     50.7095E-03     50.5088E-03
            5632               1     91.4410E-03     91.5214E-03     50.1136E-03     50.2773E-03
            5633               1     87.3981E-03     86.9489E-03     50.2306E-03     50.0105E-03
            5634               1     88.1107E-03     88.5803E-03     50.2554E-03     50.4796E-03
            5635               1     94.4868E-03     94.4053E-03     50.8723E-03     50.6061E-03
            5636               1     105.371E-03     105.767E-03     51.6056E-03     51.7901E-03
            5637               1     118.220E-03     118.842E-03     52.2264E-03     52.0125E-03
            5638               1     136.216E-03     135.376E-03     53.6213E-03     53.3040E-03
            5639               1     150.322E-03     151.753E-03     51.7919E-03     52.5653E-03
            5640               1     247.647E-03     246.981E-03     10.1872E-03     9.99934E-03
            5641               1     244.510E-03     242.617E-03     25.1624E-03     25.5488E-03
            5642               1     236.849E-03     235.041E-03     42.2295E-03     41.8558E-03
            5643               1     219.910E-03     218.931E-03     46.6129E-03     46.8207E-03
            5644               1     207.069E-03     205.539E-03     54.7303E-03     54.5754E-03
            5645               1     183.952E-03     183.159E-03     53.9492E-03     53.7743E-03
            5646               1     168.003E-03     167.225E-03     55.5225E-03     55.5672E-03
            5647               1     148.013E-03     147.276E-03     54.4990E-03     54.2750E-03
            5648               1     132.569E-03     132.149E-03     54.3189E-03     54.4130E-03
            5649               1     117.071E-03     116.376E-03     53.7304E-03     53.5167E-03
            5650               1     105.220E-03     105.068E-03     53.3325E-03     53.4516E-03
            5651               1     96.4741E-03     95.8806E-03     53.1642E-03     52.9407E-03
            5652               1     92.1520E-03     92.3593E-03     52.9777E-03     53.1316E-03
            5653               1     93.0234E-03     92.7558E-03     53.0667E-03     52.8330E-03
            5654               1     98.8164E-03     99.2316E-03     53.2580E-03     53.3919E-03
            5655               1     108.165E-03     108.602E-03     53.1933E-03     53.0941E-03
            5656               1     122.217E-03     122.061E-03     53.9269E-03     53.7333E-03
            5657               1     135.178E-03     136.615E-03     52.5530E-03     53.1063E-03
            5658               1     151.715E-03     151.075E-03     52.8814E-03     51.9969E-03
            5659               1     231.463E-03     229.561E-03     9.61696E-03     9.64943E-03
            5660               1     229.786E-03     228.114E-03     26.6878E-03     26.4079E-03
            5661               1     224.679E-03     223.397E-03     34.9566E-03     35.4488E-03
            5662               1     216.093E-03     214.504E-03     46.5404E-03     46.3785E-03
            5663               1     199.388E-03     198.488E-03     48.1839E-03     48.3859E-03
            5664               1     184.998E-03     184.000E-03     53.6050E-03     53.6629E-03
            5665               1     165.572E-03     164.816E-03     53.6631E-03     53.5643E-03
            5666               1     150.449E-03     149.853E-03     55.3936E-03     55.4893E-03
            5667               1     133.581E-03     132.845E-03     55.2554E-03     55.0705E-03
            5668               1     120.499E-03     120.156E-03     55.6705E-03     55.7643E-03
            5669               1     108.588E-03     107.898E-03     55.5872E-03     55.3692E-03
            5670               1     100.671E-03     100.619E-03     55.5912E-03     55.6947E-03
            5671               1     96.4866E-03     96.0041E-03     55.4989E-03     55.2575E-03
            5672               1     96.9978E-03     97.2739E-03     55.3940E-03     55.4979E-03
            5673               1     101.739E-03     101.797E-03     55.0233E-03     54.8504E-03
            5674               1     110.918E-03     111.228E-03     54.9794E-03     54.9519E-03
            5675               1     121.811E-03     122.738E-03     53.6645E-03     53.9395E-03
            5676               1     136.439E-03     136.254E-03     53.8605E-03     53.3141E-03
            5677               1     149.192E-03     150.483E-03     51.2013E-03     52.0354E-03
            5678               1     214.303E-03     212.076E-03     11.0878E-03     11.1370E-03
            5679               1     217.147E-03     215.907E-03     23.1332E-03     23.5293E-03
            5680               1     215.423E-03     213.742E-03     35.8721E-03     35.7279E-03
            5681               1     206.846E-03     205.710E-03     39.0912E-03     39.6030E-03
            5682               1     193.869E-03     192.970E-03     47.2173E-03     47.3970E-03
            5683               1     178.571E-03     177.799E-03     49.4103E-03     49.5178E-03
            5684               1     164.442E-03     163.764E-03     53.6733E-03     53.8155E-03
            5685               1     148.276E-03     147.536E-03     54.7552E-03     54.6526E-03
            5686               1     135.238E-03     134.755E-03     56.6525E-03     56.7477E-03
            5687               1     121.964E-03     121.234E-03     57.1601E-03     56.9752E-03
            5688               1     112.243E-03     111.989E-03     57.8757E-03     57.9513E-03
            5689               1     104.518E-03     103.900E-03     57.9784E-03     57.7465E-03
            5690               1     100.870E-03     100.925E-03     58.0153E-03     58.0887E-03
            5691               1     100.796E-03     100.506E-03     57.6338E-03     57.3918E-03
            5692               1     104.817E-03     105.169E-03     57.1604E-03     57.2097E-03
            5693               1     111.972E-03     112.280E-03     55.9597E-03     55.8838E-03
            5694               1     122.152E-03     122.718E-03     55.0951E-03     55.0083E-03
            5695               1     134.003E-03     134.894E-03     52.5639E-03     53.0899E-03
            5696               1     148.286E-03     148.131E-03     52.2864E-03     51.6644E-03
            5697               1     196.284E-03     195.993E-03     10.2408E-03     10.2407E-03
            5698               1     206.870E-03     204.295E-03     24.9145E-03     24.6773E-03
            5699               1     206.104E-03     204.791E-03     27.5598E-03     28.3761E-03
            5700               1     193.835E-03     193.312E-03     37.2475E-03     37.6704E-03
            5701               1     184.702E-03     183.933E-03     42.2943E-03     42.5687E-03
            5702               1     172.122E-03     171.533E-03     48.8409E-03     49.0792E-03
            5703               1     159.090E-03     158.367E-03     52.0406E-03     52.0487E-03
            5704               1     147.237E-03     146.672E-03     55.8873E-03     56.0061E-03
            5705               1     134.592E-03     133.853E-03     57.6076E-03     57.4859E-03
            5706               1     124.742E-03     124.336E-03     59.5587E-03     59.6259E-03
            5707               1     115.441E-03     114.775E-03     60.2835E-03     60.0953E-03
            5708               1     109.517E-03     109.371E-03     60.9552E-03     61.0057E-03
            5709               1     105.754E-03     105.288E-03     60.8554E-03     60.6203E-03
            5710               1     105.525E-03     105.697E-03     60.4992E-03     60.5477E-03
            5711               1     108.239E-03     108.107E-03     59.4998E-03     59.2595E-03
            5712               1     113.634E-03     114.207E-03     58.1120E-03     58.1817E-03
            5713               1     121.948E-03     122.187E-03     55.9668E-03     55.8770E-03
            5714               1     131.027E-03     132.280E-03     53.6362E-03     53.7898E-03
            5715               1     143.562E-03     144.408E-03     49.8681E-03     50.6445E-03
            5716               1     186.906E-03     181.314E-03     11.6926E-03     11.8820E-03
            5717               1     197.669E-03     196.853E-03     12.1062E-03     13.3851E-03
            5718               1     183.856E-03     184.080E-03     23.2648E-03     24.1338E-03
            5719               1     181.812E-03     181.236E-03     32.7808E-03     33.0702E-03
            5720               1     172.024E-03     171.680E-03     41.2517E-03     41.6080E-03
            5721               1     163.973E-03     163.266E-03     47.4559E-03     47.5242E-03
            5722               1     154.625E-03     154.037E-03     53.3668E-03     53.5117E-03
            5723               1     144.601E-03     143.845E-03     56.9389E-03     56.8877E-03
            5724               1     136.146E-03     135.615E-03     60.5178E-03     60.5829E-03
            5725               1     127.222E-03     126.546E-03     62.3041E-03     62.1861E-03
            5726               1     120.926E-03     120.614E-03     64.0485E-03     64.0860E-03
            5727               1     115.307E-03     114.816E-03     64.5340E-03     64.3698E-03
            5728               1     112.600E-03     112.579E-03     64.7928E-03     64.8236E-03
            5729               1     111.650E-03     111.378E-03     64.1414E-03     63.9309E-03
            5730               1     113.153E-03     113.459E-03     62.9714E-03     63.0256E-03
            5731               1     117.067E-03     116.944E-03     61.1514E-03     60.8855E-03
            5732               1     121.762E-03     122.665E-03     58.2956E-03     58.5171E-03
            5733               1     130.019E-03     129.989E-03     55.2017E-03     54.9418E-03
            5734               1     135.920E-03     138.151E-03     50.3128E-03     51.1044E-03
            5735               1     176.411E-03     181.413E-03    -10.0074E-03    -8.01188E-03
            5736               1     162.625E-03     164.585E-03     2.58763E-03     3.67817E-03
            5737               1     166.969E-03     167.098E-03     20.8538E-03     20.9352E-03
            5738               1     163.364E-03     163.354E-03     31.4546E-03     31.7660E-03
            5739               1     161.271E-03     160.572E-03     41.6025E-03     41.6286E-03
            5740               1     156.500E-03     155.888E-03     49.6623E-03     49.7649E-03
            5741               1     150.655E-03     149.824E-03     55.5594E-03     55.5533E-03
            5742               1     145.156E-03     144.489E-03     60.9827E-03     61.0203E-03
            5743               1     138.262E-03     137.563E-03     64.1602E-03     64.1253E-03
            5744               1     133.197E-03     132.716E-03     67.2803E-03     67.2975E-03
            5745               1     127.463E-03     127.016E-03     68.5947E-03     68.5398E-03
            5746               1     124.113E-03     123.914E-03     69.8264E-03     69.8376E-03
            5747               1     121.065E-03     120.878E-03     69.6938E-03     69.6189E-03
            5748               1     120.286E-03     120.375E-03     69.2450E-03     69.2606E-03
            5749               1     120.605E-03     120.557E-03     67.7827E-03     67.6708E-03
            5750               1     122.221E-03     122.597E-03     65.5221E-03     65.5909E-03
            5751               1     125.770E-03     125.598E-03     62.7141E-03     62.5025E-03
            5752               1     128.332E-03     129.288E-03     58.0017E-03     58.3366E-03
            5753               1     134.895E-03     134.627E-03     53.8743E-03     53.5012E-03
            5754               1     306.764E-03     311.698E-03     53.0096E-03     51.9542E-03
            5755               1     215.119E-03     216.502E-03     65.3319E-03     63.7026E-03
            5756               1     179.049E-03     179.803E-03     50.9780E-03     51.2055E-03
            5757               1     157.601E-03     157.705E-03     53.2220E-03     52.6788E-03
            5758               1     138.871E-03     138.838E-03     48.0442E-03     48.1513E-03
            5759               1     126.213E-03     125.964E-03     48.4086E-03     48.2110E-03
            5760               1     113.108E-03     112.879E-03     45.6431E-03     45.6925E-03
            5761               1     103.413E-03     103.098E-03     45.3996E-03     45.3211E-03
            5762               1     93.3118E-03     93.0926E-03     43.6832E-03     43.7163E-03
            5763               1     86.0805E-03     85.8106E-03     43.4511E-03     43.4110E-03
            5764               1     79.2231E-03     79.1212E-03     42.4821E-03     42.5186E-03
            5765               1     75.6535E-03     75.4905E-03     42.5915E-03     42.5560E-03
            5766               1     73.3583E-03     73.4440E-03     42.2819E-03     42.3420E-03
            5767               1     74.8172E-03     74.7614E-03     42.9307E-03     42.8679E-03
            5768               1     77.6934E-03     77.9644E-03     43.1890E-03     43.3093E-03
            5769               1     84.1909E-03     84.1332E-03     44.6031E-03     44.4262E-03
            5770               1     91.2520E-03     91.6955E-03     45.2156E-03     45.4807E-03
            5771               1     102.155E-03     101.955E-03     47.9705E-03     47.3866E-03
            5772               1     112.531E-03     113.439E-03     48.3603E-03     48.9192E-03
            5773               1     249.084E-03     244.247E-03     15.3837E-03     15.9513E-03
            5774               1     236.297E-03     234.477E-03     56.6805E-03     55.7401E-03
            5775               1     183.998E-03     183.564E-03     57.6015E-03     56.4240E-03
            5776               1     166.243E-03     165.806E-03     54.4395E-03     54.4081E-03
            5777               1     146.631E-03     146.129E-03     54.4699E-03     53.9053E-03
            5778               1     132.923E-03     132.653E-03     51.4521E-03     51.5047E-03
            5779               1     120.663E-03     120.193E-03     50.9672E-03     50.7160E-03
            5780               1     109.598E-03     109.390E-03     48.8539E-03     48.9141E-03
            5781               1     100.607E-03     100.214E-03     48.3818E-03     48.2582E-03
            5782               1     92.1836E-03     92.0784E-03     47.0432E-03     47.1134E-03
            5783               1     86.5244E-03     86.2257E-03     46.8955E-03     46.8093E-03
            5784               1     81.8857E-03     81.9745E-03     46.2383E-03     46.3431E-03
            5785               1     80.7939E-03     80.5827E-03     46.5856E-03     46.4794E-03
            5786               1     81.1033E-03     81.4695E-03     46.5277E-03     46.7118E-03
            5787               1     85.2067E-03     84.9969E-03     47.5226E-03     47.3039E-03
            5788               1     90.3691E-03     90.9999E-03     47.9407E-03     48.2712E-03
            5789               1     98.9329E-03     98.5288E-03     49.8260E-03     49.2459E-03
            5790               1     108.384E-03     109.054E-03     50.4971E-03     51.0055E-03
            5791               1     120.376E-03     119.517E-03     53.5337E-03     52.0440E-03
            5792               1     209.756E-03     210.798E-03     14.1974E-03     13.8166E-03
            5793               1     202.972E-03     201.341E-03     32.8419E-03     33.3199E-03
            5794               1     194.177E-03     192.255E-03     54.0235E-03     53.5375E-03
            5795               1     165.109E-03     164.436E-03     54.9164E-03     54.2801E-03
            5796               1     153.985E-03     153.255E-03     55.5940E-03     55.5409E-03
            5797               1     137.687E-03     137.072E-03     54.9510E-03     54.5532E-03
            5798               1     126.719E-03     126.384E-03     53.3978E-03     53.4432E-03
            5799               1     115.403E-03     114.896E-03     52.6129E-03     52.4006E-03
            5800               1     105.985E-03     105.819E-03     51.1840E-03     51.2563E-03
            5801               1     98.1664E-03     97.7613E-03     50.7200E-03     50.5866E-03
            5802               1     91.6504E-03     91.6558E-03     49.8268E-03     49.9274E-03
            5803               1     87.9849E-03     87.6705E-03     49.8275E-03     49.7023E-03
            5804               1     85.8377E-03     86.0992E-03     49.5029E-03     49.6635E-03
            5805               1     87.2127E-03     86.9677E-03     50.0254E-03     49.8432E-03
            5806               1     90.1509E-03     90.6700E-03     50.2248E-03     50.4800E-03
            5807               1     96.1802E-03     95.9714E-03     51.2788E-03     50.9312E-03
            5808               1     103.894E-03     104.324E-03     51.9131E-03     52.2216E-03
            5809               1     112.759E-03     112.691E-03     53.1128E-03     52.5020E-03
            5810               1     125.810E-03     124.804E-03     54.1049E-03     53.9050E-03
            5811               1     190.763E-03     188.294E-03     10.3842E-03     10.4651E-03
            5812               1     185.035E-03     184.145E-03     31.6778E-03     31.2562E-03
            5813               1     175.394E-03     174.604E-03     42.0118E-03     42.2296E-03
            5814               1     170.157E-03     168.649E-03     53.8852E-03     53.6215E-03
            5815               1     151.895E-03     151.290E-03     54.5605E-03     54.2659E-03
            5816               1     143.149E-03     142.477E-03     55.9895E-03     55.9686E-03
            5817               1     129.541E-03     128.982E-03     55.2000E-03     54.9594E-03
            5818               1     120.125E-03     119.829E-03     54.4815E-03     54.5364E-03
            5819               1     110.188E-03     109.711E-03     53.7816E-03     53.6142E-03
            5820               1     102.452E-03     102.348E-03     52.9546E-03     53.0357E-03
            5821               1     96.3630E-03     95.9675E-03     52.6550E-03     52.5137E-03
            5822               1     92.0932E-03     92.2006E-03     52.1832E-03     52.3007E-03
            5823               1     90.6829E-03     90.3824E-03     52.3056E-03     52.1460E-03
            5824               1     91.1636E-03     91.5091E-03     52.2675E-03     52.4391E-03
            5825               1     94.5530E-03     94.4225E-03     52.7196E-03     52.5156E-03
            5826               1     100.015E-03     100.352E-03     53.1189E-03     53.2920E-03
            5827               1     106.675E-03     106.968E-03     53.4681E-03     53.2881E-03
            5828               1     116.551E-03     116.030E-03     54.1472E-03     53.9978E-03
            5829               1     123.497E-03     124.677E-03     52.3601E-03     52.9577E-03
            5830               1     168.425E-03     168.076E-03     10.8800E-03     10.6635E-03
            5831               1     169.011E-03     167.686E-03     26.2038E-03     26.4217E-03
            5832               1     167.812E-03     166.491E-03     41.7929E-03     41.5341E-03
            5833               1     159.364E-03     158.803E-03     47.3672E-03     47.5005E-03
            5834               1     154.690E-03     153.637E-03     54.4006E-03     54.3083E-03
            5835               1     141.138E-03     140.625E-03     54.6487E-03     54.5245E-03
            5836               1     133.052E-03     132.567E-03     55.9707E-03     56.0057E-03
            5837               1     121.635E-03     121.144E-03     55.4087E-03     55.2532E-03
            5838               1     113.571E-03     113.352E-03     55.2392E-03     55.3035E-03
            5839               1     105.474E-03     105.030E-03     54.8252E-03     54.6773E-03
            5840               1     99.7224E-03     99.6874E-03     54.4854E-03     54.5666E-03
            5841               1     95.7741E-03     95.4046E-03     54.3572E-03     54.2019E-03
            5842               1     93.9570E-03     94.1256E-03     54.1931E-03     54.3014E-03
            5843               1     94.6524E-03     94.4533E-03     54.2605E-03     54.0960E-03
            5844               1     97.5457E-03     97.8182E-03     54.3566E-03     54.4630E-03
            5845               1     102.094E-03     102.342E-03     54.2800E-03     54.2104E-03
            5846               1     109.361E-03     109.247E-03     54.6282E-03     54.5413E-03
            5847               1     115.454E-03     116.556E-03     53.3838E-03     53.7994E-03
            5848               1     124.088E-03     123.548E-03     53.0255E-03     52.4594E-03
            5849               1     152.265E-03     150.719E-03     10.5514E-03     10.4615E-03
            5850               1     154.720E-03     153.555E-03     27.2601E-03     27.0490E-03
            5851               1     156.194E-03     155.466E-03     36.9811E-03     37.3031E-03
            5852               1     155.882E-03     154.772E-03     47.3605E-03     47.2510E-03
            5853               1     147.777E-03     147.351E-03     50.0723E-03     50.2243E-03
            5854               1     142.049E-03     141.416E-03     54.4564E-03     54.4902E-03
            5855               1     131.019E-03     130.591E-03     54.7670E-03     54.7067E-03
            5856               1     123.627E-03     123.299E-03     56.0376E-03     56.0973E-03
            5857               1     114.407E-03     113.963E-03     55.8949E-03     55.7710E-03
            5858               1     108.051E-03     107.901E-03     56.1440E-03     56.2036E-03
            5859               1     102.167E-03     101.755E-03     56.0119E-03     55.8639E-03
            5860               1     98.6563E-03     98.6725E-03     55.9903E-03     56.0559E-03
            5861               1     96.8769E-03     96.5763E-03     55.8846E-03     55.7225E-03
            5862               1     97.3219E-03     97.4820E-03     55.8127E-03     55.8763E-03
            5863               1     99.5463E-03     99.5662E-03     55.5230E-03     55.4174E-03
            5864               1     104.074E-03     104.189E-03     55.4540E-03     55.4304E-03
            5865               1     108.960E-03     109.688E-03     54.4070E-03     54.6350E-03
            5866               1     116.339E-03     116.096E-03     54.2223E-03     53.8867E-03
            5867               1     121.762E-03     122.828E-03     51.8264E-03     52.4325E-03
            5868               1     134.307E-03     132.897E-03     11.6569E-03     11.7095E-03
            5869               1     142.242E-03     141.412E-03     25.5513E-03     25.7517E-03
            5870               1     148.029E-03     146.873E-03     37.8104E-03     37.7285E-03
            5871               1     147.363E-03     146.906E-03     42.7399E-03     43.1169E-03
            5872               1     144.251E-03     143.696E-03     49.3739E-03     49.4761E-03
            5873               1     136.533E-03     136.196E-03     51.4139E-03     51.5090E-03
            5874               1     130.638E-03     130.266E-03     54.6615E-03     54.7431E-03
            5875               1     121.844E-03     121.450E-03     55.3826E-03     55.3219E-03
            5876               1     115.855E-03     115.627E-03     56.7553E-03     56.8114E-03
            5877               1     109.039E-03     108.626E-03     56.9925E-03     56.8700E-03
            5878               1     104.746E-03     104.652E-03     57.4994E-03     57.5432E-03
            5879               1     101.130E-03     100.770E-03     57.4796E-03     57.3257E-03
            5880               1     99.7313E-03     99.7720E-03     57.5255E-03     57.5617E-03
            5881               1     99.6871E-03     99.4989E-03     57.1946E-03     57.0432E-03
            5882               1     101.654E-03     101.781E-03     56.8886E-03     56.8923E-03
            5883               1     104.676E-03     104.905E-03     55.9609E-03     55.9467E-03
            5884               1     109.486E-03     109.649E-03     55.2847E-03     55.1813E-03
            5885               1     114.377E-03     115.227E-03     53.2823E-03     53.6982E-03
            5886               1     121.103E-03     120.931E-03     52.5273E-03     52.1744E-03
            5887               1     116.423E-03     115.972E-03     11.8047E-03     11.6496E-03
            5888               1     131.509E-03     129.759E-03     27.2688E-03     27.1719E-03
            5889               1     138.839E-03     138.401E-03     33.5782E-03     34.1900E-03
            5890               1     138.850E-03     138.581E-03     41.5126E-03     41.7578E-03
            5891               1     136.318E-03     136.072E-03     45.6902E-03     45.9179E-03
            5892               1     132.596E-03     132.294E-03     50.7932E-03     50.9238E-03
            5893               1     126.220E-03     125.898E-03     53.0421E-03     53.0670E-03
            5894               1     121.575E-03     121.307E-03     55.9543E-03     56.0195E-03
            5895               1     115.213E-03     114.832E-03     57.0381E-03     56.9625E-03
            5896               1     111.187E-03     111.017E-03     58.4956E-03     58.5325E-03
            5897               1     106.743E-03     106.380E-03     58.8832E-03     58.7593E-03
            5898               1     104.452E-03     104.400E-03     59.4058E-03     59.4286E-03
            5899               1     102.683E-03     102.406E-03     59.2364E-03     59.0862E-03
            5900               1     102.746E-03     102.798E-03     59.0324E-03     59.0374E-03
            5901               1     103.688E-03     103.593E-03     58.2270E-03     58.0913E-03
            5902               1     106.005E-03     106.176E-03     57.2843E-03     57.2646E-03
            5903               1     109.170E-03     109.386E-03     55.6105E-03     55.6074E-03
            5904               1     112.924E-03     113.424E-03     53.8924E-03     53.8813E-03
            5905               1     117.450E-03     118.416E-03     50.9291E-03     51.5241E-03
            5906               1     101.869E-03     98.1577E-03     13.2490E-03     13.5757E-03
            5907               1     120.126E-03     120.221E-03     21.7571E-03     22.7293E-03
            5908               1     124.417E-03     124.748E-03     30.9003E-03     31.4284E-03
            5909               1     128.389E-03     128.298E-03     37.8977E-03     38.1498E-03
            5910               1     128.106E-03     127.990E-03     44.6778E-03     44.8744E-03
            5911               1     125.916E-03     125.646E-03     49.0400E-03     49.1133E-03
            5912               1     123.737E-03     123.471E-03     53.6632E-03     53.7401E-03
            5913               1     119.432E-03     119.082E-03     56.0909E-03     56.0669E-03
            5914               1     116.774E-03     116.547E-03     58.8472E-03     58.8819E-03
            5915               1     112.737E-03     112.403E-03     59.9924E-03     59.9163E-03
            5916               1     110.624E-03     110.504E-03     61.3398E-03     61.3581E-03
            5917               1     108.044E-03     107.781E-03     61.5687E-03     61.4620E-03
            5918               1     107.165E-03     107.153E-03     61.8160E-03     61.8220E-03
            5919               1     106.462E-03     106.284E-03     61.2357E-03     61.1071E-03
            5920               1     106.992E-03     107.073E-03     60.4518E-03     60.4475E-03
            5921               1     108.080E-03     107.971E-03     59.0003E-03     58.8551E-03
            5922               1     109.493E-03     109.803E-03     57.0165E-03     57.0624E-03
            5923               1     112.049E-03     112.037E-03     54.5533E-03     54.4431E-03
            5924               1     113.237E-03     114.272E-03     51.1230E-03     51.4303E-03
            5925               1     81.6619E-03     85.7987E-03     3.27311E-03     4.91085E-03
            5926               1     97.1250E-03     98.6721E-03     15.9517E-03     16.5769E-03
            5927               1     109.833E-03     110.141E-03     27.7157E-03     27.8487E-03
            5928               1     115.940E-03     116.029E-03     36.6514E-03     36.8105E-03
            5929               1     119.496E-03     119.234E-03     43.7352E-03     43.7821E-03
            5930               1     121.504E-03     121.233E-03     50.2505E-03     50.2992E-03
            5931               1     120.727E-03     120.365E-03     54.4075E-03     54.4143E-03
            5932               1     120.634E-03     120.342E-03     58.6864E-03     58.7040E-03
            5933               1     118.217E-03     117.909E-03     60.8694E-03     60.8495E-03
            5934               1     117.299E-03     117.104E-03     63.3012E-03     63.3092E-03
            5935               1     114.891E-03     114.693E-03     64.1315E-03     64.0964E-03
            5936               1     114.060E-03     113.987E-03     65.1096E-03     65.1128E-03
            5937               1     112.494E-03     112.398E-03     64.8958E-03     64.8492E-03
            5938               1     112.192E-03     112.219E-03     64.6182E-03     64.6174E-03
            5939               1     111.681E-03     111.622E-03     63.4249E-03     63.3605E-03
            5940               1     111.733E-03     111.845E-03     61.8208E-03     61.8353E-03
            5941               1     112.072E-03     111.901E-03     59.5786E-03     59.4621E-03
            5942               1     111.555E-03     111.889E-03     56.2417E-03     56.3788E-03
            5943               1     112.355E-03     112.040E-03     52.8397E-03     52.6488E-03
            5944               1     213.678E-03     215.919E-03     41.0544E-03     40.8892E-03
            5945               1     148.052E-03     148.346E-03     53.2009E-03     52.2173E-03
            5946               1     122.030E-03     122.307E-03     45.2993E-03     45.5078E-03
            5947               1     111.607E-03     111.360E-03     49.0963E-03     48.7514E-03
            5948               1     101.619E-03     101.535E-03     47.2146E-03     47.3015E-03
            5949               1     98.2573E-03     97.9683E-03     49.1381E-03     49.0069E-03
            5950               1     93.4022E-03     93.2621E-03     48.4634E-03     48.5015E-03
            5951               1     91.7815E-03     91.5572E-03     49.4213E-03     49.3671E-03
            5952               1     88.8932E-03     88.7894E-03     48.9965E-03     49.0197E-03
            5953               1     87.9882E-03     87.8391E-03     49.4878E-03     49.4599E-03
            5954               1     86.2262E-03     86.1952E-03     49.1495E-03     49.1743E-03
            5955               1     86.0703E-03     85.9826E-03     49.5011E-03     49.4742E-03
            5956               1     85.2838E-03     85.3509E-03     49.2317E-03     49.2738E-03
            5957               1     86.1158E-03     86.0529E-03     49.6461E-03     49.5931E-03
            5958               1     86.2582E-03     86.4525E-03     49.3914E-03     49.4773E-03
            5959               1     88.3773E-03     88.2555E-03     50.0341E-03     49.8912E-03
            5960               1     89.4121E-03     89.7992E-03     49.6394E-03     49.8262E-03
            5961               1     93.5347E-03     93.1852E-03     50.8591E-03     50.4312E-03
            5962               1     95.7304E-03     96.5296E-03     49.9380E-03     50.3344E-03
            5963               1     165.254E-03     163.053E-03     15.3245E-03     15.9072E-03
            5964               1     158.616E-03     157.362E-03     48.1293E-03     47.7490E-03
            5965               1     125.572E-03     125.022E-03     50.9112E-03     50.2439E-03
            5966               1     115.765E-03     115.468E-03     50.4767E-03     50.5079E-03
            5967               1     107.736E-03     107.221E-03     52.1641E-03     51.8134E-03
            5968               1     102.104E-03     101.963E-03     51.3621E-03     51.4149E-03
            5969               1     98.9941E-03     98.6261E-03     52.2105E-03     52.0441E-03
            5970               1     95.4503E-03     95.3689E-03     51.5877E-03     51.6324E-03
            5971               1     93.7784E-03     93.5359E-03     51.9810E-03     51.8979E-03
            5972               1     91.4284E-03     91.4123E-03     51.4945E-03     51.5404E-03
            5973               1     90.6706E-03     90.5060E-03     51.7530E-03     51.6944E-03
            5974               1     89.3459E-03     89.4326E-03     51.3994E-03     51.4690E-03
            5975               1     89.6166E-03     89.4673E-03     51.7337E-03     51.6513E-03
            5976               1     89.2993E-03     89.5446E-03     51.4768E-03     51.6061E-03
            5977               1     90.8090E-03     90.5640E-03     52.0322E-03     51.8486E-03
            5978               1     91.4663E-03     91.9290E-03     51.7623E-03     52.0034E-03
            5979               1     94.5032E-03     93.9487E-03     52.6919E-03     52.2328E-03
            5980               1     96.4149E-03     97.0581E-03     52.2366E-03     52.6239E-03
            5981               1     101.437E-03     100.249E-03     53.6634E-03     52.5832E-03
            5982               1     133.059E-03     133.662E-03     14.1643E-03     13.7078E-03
            5983               1     129.443E-03     128.889E-03     31.4281E-03     31.8051E-03
            5984               1     129.193E-03     128.077E-03     48.9144E-03     48.6899E-03
            5985               1     114.558E-03     114.007E-03     51.4583E-03     51.0858E-03
            5986               1     111.424E-03     111.078E-03     53.4372E-03     53.4412E-03
            5987               1     105.986E-03     105.505E-03     54.2889E-03     54.0317E-03
            5988               1     102.720E-03     102.600E-03     54.1452E-03     54.1886E-03
            5989               1     99.8559E-03     99.5248E-03     54.3559E-03     54.2140E-03
            5990               1     97.1501E-03     97.1187E-03     53.8611E-03     53.9101E-03
            5991               1     95.5149E-03     95.2900E-03     53.9131E-03     53.8260E-03
            5992               1     93.6778E-03     93.7334E-03     53.4783E-03     53.5434E-03
            5993               1     93.1789E-03     92.9963E-03     53.6210E-03     53.5351E-03
            5994               1     92.3865E-03     92.5748E-03     53.3339E-03     53.4446E-03
            5995               1     93.1216E-03     92.8995E-03     53.6821E-03     53.5367E-03
            5996               1     93.4047E-03     93.7666E-03     53.4874E-03     53.6799E-03
            5997               1     95.3817E-03     95.0126E-03     54.0549E-03     53.7588E-03
            5998               1     96.8036E-03     97.2387E-03     53.8043E-03     54.0715E-03
            5999               1     99.6587E-03     99.1621E-03     54.2760E-03     53.7796E-03
            6000               1     103.153E-03     102.855E-03     53.8511E-03     53.8652E-03
            6001               1     114.284E-03     113.028E-03     11.0487E-03     11.2040E-03
            6002               1     114.009E-03     113.390E-03     30.1618E-03     29.7604E-03
            6003               1     112.241E-03     112.016E-03     40.5822E-03     40.7518E-03
            6004               1     115.966E-03     115.192E-03     51.1167E-03     50.9760E-03
            6005               1     109.735E-03     109.336E-03     53.3214E-03     53.1328E-03
            6006               1     109.107E-03     108.839E-03     55.5221E-03     55.5277E-03
            6007               1     105.189E-03     104.832E-03     55.8449E-03     55.6831E-03
            6008               1     102.972E-03     102.891E-03     55.9142E-03     55.9534E-03
            6009               1     100.353E-03     100.090E-03     55.7782E-03     55.6706E-03
            6010               1     98.2462E-03     98.2554E-03     55.4127E-03     55.4633E-03
            6011               1     96.8418E-03     96.6389E-03     55.3191E-03     55.2319E-03
            6012               1     95.5876E-03     95.6946E-03     55.0061E-03     55.0827E-03
            6013               1     95.4587E-03     95.2676E-03     55.1072E-03     54.9996E-03
            6014               1     95.3055E-03     95.5383E-03     54.9280E-03     55.0548E-03
            6015               1     96.3609E-03     96.1509E-03     55.1968E-03     55.0303E-03
            6016               1     97.3025E-03     97.5880E-03     55.0419E-03     55.2082E-03
            6017               1     98.9947E-03     98.8779E-03     55.1325E-03     54.9400E-03
            6018               1     100.959E-03     100.846E-03     54.6935E-03     54.7099E-03
            6019               1     101.509E-03     102.254E-03     53.0539E-03     53.4300E-03
            6020               1     94.3908E-03     94.2912E-03     11.2403E-03     10.8102E-03
            6021               1     98.7232E-03     98.1421E-03     26.0107E-03     26.1895E-03
            6022               1     105.407E-03     104.681E-03     40.3027E-03     40.0690E-03
            6023               1     106.556E-03     106.374E-03     46.9867E-03     47.0514E-03
            6024               1     111.024E-03     110.571E-03     53.7365E-03     53.6871E-03
            6025               1     107.859E-03     107.586E-03     55.1611E-03     55.0630E-03
            6026               1     107.603E-03     107.446E-03     56.8407E-03     56.8645E-03
            6027               1     104.406E-03     104.152E-03     56.8035E-03     56.7017E-03
            6028               1     102.620E-03     102.582E-03     56.8979E-03     56.9352E-03
            6029               1     100.368E-03     100.158E-03     56.6447E-03     56.5586E-03
            6030               1     98.8331E-03     98.8699E-03     56.4232E-03     56.4704E-03
            6031               1     97.8285E-03     97.6485E-03     56.3016E-03     56.2146E-03
            6032               1     97.2316E-03     97.3519E-03     56.1306E-03     56.2018E-03
            6033               1     97.4391E-03     97.2934E-03     56.1581E-03     56.0563E-03
            6034               1     97.9144E-03     98.0897E-03     56.0427E-03     56.1384E-03
            6035               1     98.8777E-03     98.8800E-03     55.9702E-03     55.8963E-03
            6036               1     100.132E-03     100.139E-03     55.6394E-03     55.6681E-03
            6037               1     100.590E-03     101.115E-03     54.6074E-03     54.8152E-03
            6038               1     100.936E-03     100.617E-03     53.0431E-03     52.7783E-03
            6039               1     79.0133E-03     78.1273E-03     10.6358E-03     10.7016E-03
            6040               1     86.2739E-03     85.6726E-03     26.5652E-03     26.2183E-03
            6041               1     94.9905E-03     94.7576E-03     37.3144E-03     37.4966E-03
            6042               1     104.202E-03     103.706E-03     47.4312E-03     47.3271E-03
            6043               1     105.808E-03     105.701E-03     51.3936E-03     51.4456E-03
            6044               1     108.974E-03     108.742E-03     55.6262E-03     55.6330E-03
            6045               1     106.506E-03     106.338E-03     56.2842E-03     56.2382E-03
            6046               1     105.911E-03     105.828E-03     57.4107E-03     57.4386E-03
            6047               1     103.233E-03     103.050E-03     57.2448E-03     57.1754E-03
            6048               1     101.824E-03     101.810E-03     57.3774E-03     57.4055E-03
            6049               1     100.092E-03     99.9214E-03     57.1480E-03     57.0743E-03
            6050               1     99.1904E-03     99.2265E-03     57.0748E-03     57.1064E-03
            6051               1     98.6172E-03     98.4849E-03     56.9304E-03     56.8560E-03
            6052               1     98.6518E-03     98.7241E-03     56.8487E-03     56.8866E-03
            6053               1     98.9717E-03     98.9700E-03     56.6590E-03     56.6179E-03
            6054               1     99.8059E-03     99.8336E-03     56.4454E-03     56.4606E-03
            6055               1     100.194E-03     100.559E-03     55.7448E-03     55.8770E-03
            6056               1     100.748E-03     100.575E-03     54.8023E-03     54.6775E-03
            6057               1     99.9806E-03     100.507E-03     52.8244E-03     53.1297E-03
            6058               1     62.3795E-03     61.8469E-03     11.4980E-03     11.0775E-03
            6059               1     75.2306E-03     74.7442E-03     25.8571E-03     26.0058E-03
            6060               1     89.5279E-03     89.1060E-03     38.4844E-03     38.3569E-03
            6061               1     97.9305E-03     97.8567E-03     45.3100E-03     45.4534E-03
            6062               1     105.107E-03     104.903E-03     51.8039E-03     51.8214E-03
            6063               1     105.485E-03     105.446E-03     53.8118E-03     53.8566E-03
            6064               1     106.855E-03     106.756E-03     56.3836E-03     56.4130E-03
            6065               1     104.679E-03     104.564E-03     56.7090E-03     56.6791E-03
            6066               1     103.951E-03     103.910E-03     57.5363E-03     57.5574E-03
            6067               1     101.911E-03     101.766E-03     57.4297E-03     57.3727E-03
            6068               1     101.019E-03     101.007E-03     57.6452E-03     57.6564E-03
            6069               1     99.8595E-03     99.7289E-03     57.4622E-03     57.3999E-03
            6070               1     99.5721E-03     99.5713E-03     57.4808E-03     57.4818E-03
            6071               1     99.2871E-03     99.2392E-03     57.2188E-03     57.1772E-03
            6072               1     99.7265E-03     99.7052E-03     57.0860E-03     57.0684E-03
            6073               1     99.8568E-03     100.040E-03     56.5166E-03     56.5693E-03
            6074               1     100.472E-03     100.419E-03     55.9505E-03     55.8997E-03
            6075               1     100.152E-03     100.633E-03     54.6508E-03     54.8880E-03
            6076               1     99.3134E-03     99.2123E-03     52.9045E-03     52.7660E-03
            6077               1     47.2779E-03     46.5798E-03     11.7858E-03     12.0024E-03
            6078               1     67.0057E-03     66.5507E-03     27.8086E-03     27.5864E-03
            6079               1     83.4141E-03     83.2783E-03     37.7844E-03     37.9819E-03
            6080               1     95.8676E-03     95.7899E-03     46.2265E-03     46.2877E-03
            6081               1     100.553E-03     100.638E-03     49.6674E-03     49.8013E-03
            6082               1     104.265E-03     104.201E-03     53.5536E-03     53.5952E-03
            6083               1     103.864E-03     103.850E-03     54.7793E-03     54.8077E-03
            6084               1     104.362E-03     104.319E-03     56.5566E-03     56.5791E-03
            6085               1     102.747E-03     102.654E-03     56.8987E-03     56.8690E-03
            6086               1     102.324E-03     102.295E-03     57.6522E-03     57.6581E-03
            6087               1     100.984E-03     100.870E-03     57.6442E-03     57.5941E-03
            6088               1     100.659E-03     100.624E-03     57.9167E-03     57.9031E-03
            6089               1     99.9349E-03     99.8564E-03     57.6907E-03     57.6468E-03
            6090               1     100.056E-03     99.9862E-03     57.6694E-03     57.6271E-03
            6091               1     99.7807E-03     99.8271E-03     57.1477E-03     57.1497E-03
            6092               1     100.199E-03     100.093E-03     56.7690E-03     56.6958E-03
            6093               1     99.8907E-03     100.153E-03     55.7501E-03     55.8526E-03
            6094               1     99.7530E-03     99.8029E-03     54.6629E-03     54.6337E-03
            6095               1     98.5830E-03     99.0329E-03     52.8820E-03     53.1718E-03
            6096               1     33.0491E-03     32.4085E-03     13.4237E-03     13.0221E-03
            6097               1     60.4405E-03     60.1361E-03     28.6082E-03     28.8226E-03
            6098               1     81.1384E-03     81.3891E-03     39.7107E-03     39.9309E-03
            6099               1     91.1295E-03     91.3218E-03     44.3303E-03     44.5220E-03
            6100               1     97.4443E-03     97.4914E-03     49.1073E-03     49.1840E-03
            6101               1     99.9779E-03     100.057E-03     51.4842E-03     51.5597E-03
            6102               1     102.150E-03     102.136E-03     54.2415E-03     54.2724E-03
            6103               1     101.939E-03     101.909E-03     55.3908E-03     55.3925E-03
            6104               1     102.519E-03     102.496E-03     56.9069E-03     56.9163E-03
            6105               1     101.638E-03     101.556E-03     57.3521E-03     57.3188E-03
            6106               1     101.709E-03     101.676E-03     58.0858E-03     58.0752E-03
            6107               1     100.915E-03     100.834E-03     58.0765E-03     58.0360E-03
            6108               1     100.967E-03     100.895E-03     58.2852E-03     58.2448E-03
            6109               1     100.374E-03     100.347E-03     57.8665E-03     57.8446E-03
            6110               1     100.502E-03     100.363E-03     57.6170E-03     57.5338E-03
            6111               1     99.9030E-03     99.9798E-03     56.7101E-03     56.7312E-03
            6112               1     99.7819E-03     99.6536E-03     55.8898E-03     55.7968E-03
            6113               1     98.7530E-03     98.9293E-03     54.3952E-03     54.4630E-03
            6114               1     97.3029E-03     97.7426E-03     52.6228E-03     52.7774E-03
            6115               1     25.3654E-03     26.0711E-03     14.4997E-03     15.0302E-03
            6116               1     59.6594E-03     60.5842E-03     31.9608E-03     32.4933E-03
            6117               1     76.2342E-03     76.6549E-03     37.8669E-03     38.1331E-03
            6118               1     85.4609E-03     85.6541E-03     43.1021E-03     43.2084E-03
            6119               1     92.0519E-03     92.2088E-03     46.9089E-03     47.0087E-03
            6120               1     96.5395E-03     96.5681E-03     50.6041E-03     50.6371E-03
            6121               1     98.7850E-03     98.8094E-03     52.8985E-03     52.9240E-03
            6122               1     101.004E-03     100.995E-03     55.3366E-03     55.3483E-03
            6123               1     101.377E-03     101.337E-03     56.5294E-03     56.5161E-03
            6124               1     102.390E-03     102.371E-03     57.9353E-03     57.9329E-03
            6125               1     102.053E-03     101.995E-03     58.3567E-03     58.3286E-03
            6126               1     102.448E-03     102.406E-03     58.9726E-03     58.9501E-03
            6127               1     101.841E-03     101.799E-03     58.7905E-03     58.7665E-03
            6128               1     101.877E-03     101.777E-03     58.7554E-03     58.6977E-03
            6129               1     101.025E-03     101.024E-03     57.9890E-03     57.9852E-03
            6130               1     100.647E-03     100.463E-03     57.3071E-03     57.2033E-03
            6131               1     99.3139E-03     99.3431E-03     55.8923E-03     55.9049E-03
            6132               1     98.0669E-03     97.9370E-03     54.4272E-03     54.3441E-03
            6133               1     95.8026E-03     95.7555E-03     52.3345E-03     52.2941E-03
            6134               1     37.9619E-03     38.2709E-03     17.6065E-03     18.8191E-03
            6135               1     54.1141E-03     54.5742E-03     29.6775E-03     29.8304E-03
            6136               1     66.2557E-03     66.6366E-03     34.7692E-03     34.9091E-03
            6137               1     78.7852E-03     78.9069E-03     40.9234E-03     40.9605E-03
            6138               1     86.8347E-03     86.9159E-03     45.6825E-03     45.7161E-03
            6139               1     92.6908E-03     92.7120E-03     49.5264E-03     49.5404E-03
            6140               1     97.4048E-03     97.4129E-03     53.0420E-03     53.0519E-03
            6141               1     99.8475E-03     99.8330E-03     55.2459E-03     55.2452E-03
            6142               1     102.406E-03     102.400E-03     57.4974E-03     57.4993E-03
            6143               1     103.087E-03     103.064E-03     58.5376E-03     58.5286E-03
            6144               1     104.293E-03     104.282E-03     59.7323E-03     59.7274E-03
            6145               1     104.061E-03     104.044E-03     59.9265E-03     59.9163E-03
            6146               1     104.379E-03     104.350E-03     60.2544E-03     60.2376E-03
            6147               1     103.551E-03     103.541E-03     59.7406E-03     59.7362E-03
            6148               1     103.099E-03     103.022E-03     59.2716E-03     59.2337E-03
            6149               1     101.607E-03     101.593E-03     58.0397E-03     58.0447E-03
            6150               1     100.151E-03     99.9976E-03     56.7074E-03     56.6447E-03
            6151               1     97.6021E-03     97.5270E-03     54.6500E-03     54.6497E-03
            6152               1     94.4215E-03     94.2659E-03     52.2340E-03     52.2039E-03
            6153               1     92.4398E-03     92.5948E-03     30.9248E-03     31.3854E-03
            6154               1     87.1482E-03     86.3409E-03     48.6834E-03     48.1981E-03
            6155               1     85.0675E-03     85.2301E-03     48.2920E-03     48.4701E-03
            6156               1     92.2247E-03     92.0208E-03     52.8763E-03     52.7909E-03
            6157               1     89.1877E-03     89.1765E-03     51.0808E-03     51.1201E-03
            6158               1     90.5817E-03     90.4764E-03     52.0103E-03     51.9830E-03
            6159               1     89.0978E-03     89.0622E-03     51.1920E-03     51.2056E-03
            6160               1     89.4944E-03     89.4230E-03     51.5012E-03     51.4869E-03
            6161               1     88.9066E-03     88.8738E-03     51.2093E-03     51.2140E-03
            6162               1     89.0278E-03     88.9805E-03     51.3281E-03     51.3187E-03
            6163               1     88.7842E-03     88.7665E-03     51.2204E-03     51.2232E-03
            6164               1     88.8489E-03     88.8183E-03     51.2819E-03     51.2719E-03
            6165               1     88.7392E-03     88.7453E-03     51.2312E-03     51.2369E-03
            6166               1     88.8648E-03     88.8443E-03     51.3055E-03     51.2904E-03
            6167               1     88.8001E-03     88.8345E-03     51.2587E-03     51.2699E-03
            6168               1     89.1122E-03     89.1121E-03     51.4208E-03     51.4057E-03
            6169               1     89.0201E-03     89.0821E-03     51.3352E-03     51.3521E-03
            6170               1     89.7365E-03     89.6420E-03     51.7214E-03     51.6367E-03
            6171               1     88.6233E-03     89.2306E-03     51.0026E-03     51.3423E-03
            6172               1     50.4564E-03     50.1958E-03     20.7363E-03     20.6040E-03
            6173               1     88.6234E-03     88.5759E-03     49.3325E-03     49.4455E-03
            6174               1     94.8836E-03     94.7361E-03     54.4710E-03     54.3764E-03
            6175               1     91.9407E-03     91.9101E-03     52.4874E-03     52.5013E-03
            6176               1     91.5019E-03     91.4508E-03     52.5164E-03     52.4969E-03
            6177               1     90.2746E-03     90.2610E-03     51.7719E-03     51.7811E-03
            6178               1     90.3419E-03     90.2842E-03     51.9470E-03     51.9245E-03
            6179               1     89.9242E-03     89.9154E-03     51.7410E-03     51.7475E-03
            6180               1     89.9529E-03     89.9044E-03     51.8280E-03     51.8083E-03
            6181               1     89.7544E-03     89.7505E-03     51.7502E-03     51.7551E-03
            6182               1     89.7649E-03     89.7210E-03     51.7923E-03     51.7718E-03
            6183               1     89.6598E-03     89.6698E-03     51.7526E-03     51.7612E-03
            6184               1     89.7074E-03     89.6581E-03     51.7912E-03     51.7636E-03
            6185               1     89.6437E-03     89.6774E-03     51.7543E-03     51.7725E-03
            6186               1     89.7727E-03     89.7160E-03     51.8184E-03     51.7822E-03
            6187               1     89.7436E-03     89.7876E-03     51.7772E-03     51.7969E-03
            6188               1     90.0468E-03     90.0193E-03     51.9262E-03     51.9013E-03
            6189               1     90.1914E-03     90.2953E-03     51.9493E-03     52.0093E-03
            6190               1     91.2289E-03     90.7740E-03     52.5503E-03     52.2394E-03
            6191               1     36.3099E-03     36.0757E-03     20.7968E-03     20.6057E-03
            6192               1     81.7074E-03     82.3226E-03     46.7101E-03     47.0104E-03
            6193               1     95.2700E-03     95.0904E-03     53.9567E-03     53.8827E-03
            6194               1     91.1644E-03     91.1938E-03     52.2315E-03     52.2282E-03
            6195               1     91.8296E-03     91.8503E-03     52.5430E-03     52.5482E-03
            6196               1     90.5467E-03     90.5246E-03     52.0144E-03     51.9920E-03
            6197               1     90.9349E-03     90.9556E-03     52.2608E-03     52.2657E-03
            6198               1     90.5751E-03     90.5549E-03     52.1467E-03     52.1283E-03
            6199               1     90.6821E-03     90.6973E-03     52.2475E-03     52.2510E-03
            6200               1     90.5410E-03     90.5168E-03     52.2148E-03     52.1965E-03
            6201               1     90.5421E-03     90.5562E-03     52.2437E-03     52.2488E-03
            6202               1     90.4912E-03     90.4562E-03     52.2355E-03     52.2134E-03
            6203               1     90.4761E-03     90.4962E-03     52.2358E-03     52.2468E-03
            6204               1     90.4706E-03     90.4170E-03     52.2309E-03     52.2008E-03
            6205               1     90.4722E-03     90.5082E-03     52.2184E-03     52.2414E-03
            6206               1     90.4847E-03     90.3913E-03     52.2040E-03     52.1538E-03
            6207               1     90.5866E-03     90.6409E-03     52.2206E-03     52.2578E-03
            6208               1     90.5702E-03     90.5859E-03     52.1801E-03     52.1857E-03
            6209               1     91.6054E-03     91.0139E-03     52.6540E-03     52.3643E-03
            6210               1     61.7779E-03     61.9960E-03     26.2813E-03     26.8740E-03
            6211               1     78.0697E-03     77.4921E-03     44.8697E-03     44.5120E-03
            6212               1     81.6062E-03     82.0300E-03     46.6112E-03     46.8057E-03
            6213               1     91.9442E-03     91.8871E-03     52.5392E-03     52.4694E-03
            6214               1     89.6773E-03     89.7755E-03     51.4291E-03     51.4512E-03
            6215               1     91.9688E-03     91.9934E-03     52.8047E-03     52.7873E-03
            6216               1     90.8635E-03     90.9157E-03     52.2622E-03     52.2657E-03
            6217               1     91.5762E-03     91.6070E-03     52.7235E-03     52.7176E-03
            6218               1     91.1550E-03     91.1831E-03     52.5358E-03     52.5329E-03
            6219               1     91.3790E-03     91.4022E-03     52.7020E-03     52.7002E-03
            6220               1     91.2028E-03     91.2122E-03     52.6304E-03     52.6249E-03
            6221               1     91.2774E-03     91.2882E-03     52.6912E-03     52.6911E-03
            6222               1     91.1797E-03     91.1720E-03     52.6424E-03     52.6360E-03
            6223               1     91.2397E-03     91.2358E-03     52.6738E-03     52.6742E-03
            6224               1     91.1151E-03     91.0875E-03     52.5880E-03     52.5798E-03
            6225               1     91.2369E-03     91.2262E-03     52.6329E-03     52.6386E-03
            6226               1     90.8994E-03     90.8415E-03     52.4037E-03     52.3886E-03
            6227               1     91.1695E-03     91.0139E-03     52.5046E-03     52.4405E-03
            6228               1     89.1933E-03     89.7715E-03     51.3248E-03     51.6744E-03
            6509               1     1.43259E-03     1.67045E-03    -147.210E-06    -114.078E-06
            6510               1     912.440E-06     1.04735E-03    -299.046E-06    -263.679E-06
            6511               1     1.25179E-03     1.14685E-03    -7.36958E-06    -33.7175E-06
            6512               1     1.01520E-03     1.04498E-03    -293.138E-06    -282.263E-06
            6513               1     865.551E-06     938.674E-06     67.2096E-06     52.8121E-06
            6514               1     812.097E-06     842.881E-06    -163.254E-06    -208.387E-06
            6515               1     632.680E-06     615.038E-06     109.486E-06     88.9136E-06
            6516               1     624.575E-06     652.214E-06    -148.075E-06    -161.758E-06
            6517               1     370.590E-06     334.984E-06     116.626E-06     95.2713E-06
            6518               1     435.798E-06     486.435E-06    -121.211E-06    -165.009E-06
            6519               1     178.435E-06     155.774E-06     94.5184E-06     62.0908E-06
            6520               1     421.049E-06     398.324E-06    -201.968E-06    -191.817E-06
            6521               1     294.960E-06     503.646E-06     3.92666E-06     17.6286E-06
            6522               1     417.259E-06     303.421E-06    -178.282E-06    -152.636E-06
            6523               1     157.570E-03     158.223E-03     55.7456E-03     53.1864E-03
            6524               1     188.906E-03     194.662E-03     54.3805E-03     52.0810E-03
            6525               1     171.480E-03     169.852E-03     56.0593E-03     55.3123E-03
            6526               1     191.402E-03     182.874E-03     51.6975E-03     52.2778E-03
            6527               1     168.654E-03     168.481E-03     51.3005E-03     52.3833E-03
            6528               1     181.726E-03     186.178E-03     48.3301E-03     47.4602E-03
            6529               1     166.936E-03     167.133E-03     51.0247E-03     49.9305E-03
            6530               1     181.260E-03     178.368E-03     46.8797E-03     46.6369E-03
            6531               1     164.392E-03     164.808E-03     49.3965E-03     50.0328E-03
            6532               1     177.294E-03     178.211E-03     47.0034E-03     46.5288E-03
            6533               1     163.684E-03     163.180E-03     50.7233E-03     49.9204E-03
            6534               1     174.516E-03     174.617E-03     46.8967E-03     46.8202E-03
            6535               1     160.280E-03     161.654E-03     49.2349E-03     49.9574E-03
            6536               1     173.123E-03     171.455E-03     47.6495E-03     47.5327E-03
            6537               1     158.354E-03     156.959E-03     49.5284E-03     49.0039E-03
            6538               1     166.165E-03     169.215E-03     46.1474E-03     46.2665E-03
            6539               1     149.174E-03     151.176E-03     44.7954E-03     46.2380E-03
            6540               1     164.997E-03     158.291E-03     45.1302E-03     44.9402E-03
            6541               1     135.575E-03     138.689E-03     44.6705E-03     45.9623E-03
            6542               1     150.177E-03     159.421E-03     38.7782E-03     42.2026E-03
            6543               1     129.609E-03     129.521E-03     54.6347E-03     52.6180E-03
            6544               1     149.581E-03     153.445E-03     52.2701E-03     50.8215E-03
            6545               1     138.197E-03     137.015E-03     54.8632E-03     54.4413E-03
            6546               1     150.003E-03     144.396E-03     50.7221E-03     51.2161E-03
            6547               1     134.487E-03     134.756E-03     51.3358E-03     52.2116E-03
            6548               1     141.039E-03     144.015E-03     47.8475E-03     47.1485E-03
            6549               1     132.298E-03     132.260E-03     50.9323E-03     50.1518E-03
            6550               1     139.243E-03     137.167E-03     46.7190E-03     46.5176E-03
            6551               1     129.570E-03     129.943E-03     49.6847E-03     50.1384E-03
            6552               1     135.236E-03     135.879E-03     46.6147E-03     46.2264E-03
            6553               1     128.540E-03     128.176E-03     50.5235E-03     49.9992E-03
            6554               1     132.340E-03     132.128E-03     46.4743E-03     46.3686E-03
            6555               1     125.509E-03     126.408E-03     49.5225E-03     49.9948E-03
            6556               1     130.376E-03     129.545E-03     47.0413E-03     46.9415E-03
            6557               1     123.747E-03     123.059E-03     49.8156E-03     49.6101E-03
            6558               1     124.763E-03     126.141E-03     46.0082E-03     46.0232E-03
            6559               1     116.736E-03     118.602E-03     46.7971E-03     47.8600E-03
            6560               1     122.639E-03     119.312E-03     45.7473E-03     45.7590E-03
            6561               1     109.076E-03     110.418E-03     46.5861E-03     47.1829E-03
            6562               1     110.779E-03     116.752E-03     41.0726E-03     43.5319E-03
            6563               1     104.502E-03     103.706E-03     53.1202E-03     51.7028E-03
            6564               1     111.552E-03     113.596E-03     49.6079E-03     49.0548E-03
            6565               1     107.800E-03     107.325E-03     53.2649E-03     53.1982E-03
            6566               1     110.889E-03     108.459E-03     49.3909E-03     49.8256E-03
            6567               1     104.315E-03     104.987E-03     51.2375E-03     51.9073E-03
            6568               1     103.275E-03     104.584E-03     47.0943E-03     46.6005E-03
            6569               1     101.638E-03     101.448E-03     50.5607E-03     50.1082E-03
            6570               1     100.921E-03     99.9056E-03     46.3247E-03     46.2859E-03
            6571               1     99.8021E-03     100.053E-03     50.0188E-03     50.2944E-03
            6572               1     97.0188E-03     97.3401E-03     45.9101E-03     45.6163E-03
            6573               1     98.0831E-03     97.8790E-03     50.0151E-03     49.7035E-03
            6574               1     95.4188E-03     95.1231E-03     45.9961E-03     46.0397E-03
            6575               1     97.2513E-03     97.4253E-03     50.2019E-03     50.4011E-03
            6576               1     92.5690E-03     92.4811E-03     45.9341E-03     45.6959E-03
            6577               1     95.7472E-03     95.7227E-03     50.1766E-03     50.0768E-03
            6578               1     91.6229E-03     91.4331E-03     46.5520E-03     46.6137E-03
            6579               1     94.9598E-03     95.3107E-03     50.4224E-03     50.7583E-03
            6580               1     88.8767E-03     88.6437E-03     46.3045E-03     46.0978E-03
            6581               1     92.1411E-03     93.3205E-03     49.5467E-03     50.0875E-03
            6582               1     88.0867E-03     87.9296E-03     46.9493E-03     47.1460E-03
            6583               1     89.9071E-03     89.5359E-03     49.1550E-03     49.0314E-03
            6584               1     81.5827E-03     83.9413E-03     44.2599E-03     45.5742E-03
            6585               1     89.8162E-03     88.4209E-03     51.6348E-03     50.7231E-03
            6586               1     84.5165E-03     85.3485E-03     47.6667E-03     47.9368E-03
            6587               1     90.3901E-03     91.2953E-03     51.8614E-03     52.4390E-03
            6588               1     84.4073E-03     83.5475E-03     48.0778E-03     47.8020E-03
            6589               1     89.0245E-03     90.6290E-03     51.1878E-03     52.0591E-03
            6590               1     83.1633E-03     82.6869E-03     47.8451E-03     47.4963E-03
            6591               1     88.6795E-03     87.3286E-03     51.0006E-03     50.2536E-03
            6592               1     80.6920E-03     81.6731E-03     46.5577E-03     47.1527E-03
            6593               1     1.23894E-03     1.20209E-03     711.803E-06     686.239E-06
            6594               1     1.28653E-03     1.25004E-03     735.897E-06     718.112E-06
            6595               1     1.24371E-03     1.25393E-03     716.218E-06     720.600E-06
            6596               1     1.26168E-03     1.24251E-03     726.900E-06     715.819E-06
            6597               1     1.25786E-03     1.25093E-03     725.441E-06     721.615E-06
            6598               1     1.26830E-03     1.24319E-03     732.233E-06     717.531E-06
            6599               1     1.24858E-03     1.22942E-03     720.807E-06     709.421E-06
            6600               1     1.18636E-03     1.20872E-03     652.081E-06     627.435E-06
            6601               1     1.26840E-03     1.19241E-03     675.828E-06     663.103E-06
            6602               1     1.17967E-03     1.22014E-03     657.891E-06     667.965E-06
            6603               1     1.16271E-03     1.13355E-03     657.480E-06     640.172E-06
            6604               1     1.15911E-03     1.14714E-03     663.121E-06     658.353E-06
            6605               1     1.15206E-03     1.13299E-03     664.916E-06     651.409E-06
            6606               1     1.13468E-03     1.11702E-03     654.740E-06     643.428E-06
            6607               1     1.10270E-03     1.23295E-03     542.909E-06     507.299E-06
            6608               1     1.28880E-03     1.07283E-03     569.354E-06     535.191E-06
            6609               1     1.02414E-03     1.08245E-03     526.528E-06     531.082E-06
            6610               1     998.324E-06     1.00798E-03     534.145E-06     543.385E-06
            6611               1     936.796E-06     940.544E-06     519.243E-06     528.113E-06
            6612               1     932.091E-06     921.940E-06     537.876E-06     525.500E-06
            6613               1     915.632E-06     904.806E-06     527.995E-06     515.814E-06
            6614               1     997.554E-06     1.33600E-03     335.234E-06     284.437E-06
            6615               1     1.24807E-03     866.272E-06     353.386E-06     327.526E-06
            6616               1     858.938E-06     1.00835E-03     351.943E-06     364.092E-06
            6617               1     758.699E-06     727.892E-06     349.511E-06     332.374E-06
            6618               1     700.883E-06     685.715E-06     362.898E-06     373.746E-06
            6619               1     577.150E-06     640.301E-06     329.888E-06     349.913E-06
            6620               1     575.773E-06     606.416E-06     331.617E-06     333.194E-06
            6621               1     989.906E-06     1.50250E-03     38.2761E-06     44.2519E-06
            6622               1     1.45516E-03     970.316E-06     81.2825E-06     88.1214E-06
            6623               1     706.863E-06     1.00990E-03     61.2882E-06     48.7698E-06
            6624               1     575.676E-06     532.314E-06     115.324E-06     73.2964E-06
            6625               1     341.934E-06     260.481E-06     87.8200E-06     82.0156E-06
            6626               1     306.122E-06     266.551E-06     155.407E-06     147.058E-06
            6627               1     255.267E-06     360.992E-06     146.615E-06     146.760E-06
            6628               1     1.65212E-03     1.99802E-03    -374.087E-06    -312.834E-06
            6629               1     1.66124E-03     1.28984E-03    -372.776E-06    -344.903E-06
            6630               1     936.693E-06     1.16844E-03    -244.374E-06    -302.170E-06
            6631               1     782.620E-06     711.563E-06    -285.434E-06    -255.591E-06
            6632               1     475.249E-06     494.066E-06    -218.115E-06    -260.827E-06
            6633               1     425.994E-06     410.666E-06    -207.327E-06    -225.525E-06
            6634               1     480.162E-06     687.142E-06    -134.667E-06    -140.514E-06


  Minimum                            178.435E-06     155.774E-06    -90.9332E-03    -82.6713E-03
      At Element                            6519            6519             348            4391
          Int Pt                               1               1               1               1

  Maximum                            423.467E-03     414.020E-03     132.266E-03     133.013E-03
      At Element                            2391            4392            2390            2390
          Int Pt                               1               1               1               1

           Total                         608.865         613.051         15.1927         15.6402


Field Output reported at integration points for region: B737-1.Region_2

   Element Label             Int         S.Mises         S.Mises           S.S12           S.S12
                              Pt          @Loc 1          @Loc 2          @Loc 1          @Loc 2
-------------------------------------------------------------------------------------------------
            1732               1     40.0558E-03     42.8807E-03    -21.3317E-03    -19.2006E-03
            1733               1     45.1757E-03     44.4854E-03    -26.0427E-03    -24.9395E-03
            1734               1     45.6730E-03     46.0412E-03    -26.3275E-03    -26.1631E-03
            1735               1     47.5896E-03     47.2968E-03    -27.4392E-03    -26.9455E-03
            1736               1     46.5546E-03     47.2812E-03    -26.7636E-03    -26.8189E-03
            1737               1     44.0297E-03     44.1843E-03    -25.2870E-03    -25.0200E-03
            1738               1     40.0628E-03     41.8585E-03    -23.0184E-03    -23.7731E-03
            1739               1     32.0259E-03     32.4314E-03    -16.7486E-03    -18.4443E-03
            1740               1     32.2099E-03     33.0787E-03    -17.2082E-03    -18.5130E-03
            1741               1     46.5867E-03     44.7340E-03    -26.7398E-03    -25.3845E-03
            1742               1     48.5742E-03     47.0939E-03    -28.0191E-03    -27.0241E-03
            1743               1     49.3237E-03     49.2904E-03    -28.3893E-03    -28.1490E-03
            1744               1     49.3608E-03     48.6270E-03    -28.2990E-03    -27.6031E-03
            1745               1     46.7852E-03     47.7068E-03    -26.5342E-03    -26.7185E-03
            1746               1     42.5243E-03     43.6727E-03    -24.2317E-03    -24.7923E-03
            1747               1     28.5943E-03     28.5040E-03    -16.4165E-03    -16.4505E-03
            1748               1     27.9509E-03     30.1888E-03    -16.0859E-03    -17.4048E-03
            1749               1     41.0999E-03     42.5386E-03    -23.6812E-03    -24.5547E-03
            1750               1     50.0159E-03     49.5322E-03    -28.8429E-03    -28.5094E-03
            1751               1     51.7213E-03     50.7952E-03    -29.7802E-03    -29.1559E-03
            1752               1     51.5974E-03     51.5956E-03    -29.4213E-03    -29.2403E-03
            1753               1     49.9440E-03     49.5098E-03    -28.1885E-03    -27.7674E-03
            1754               1     42.6754E-03     41.4111E-03    -23.6789E-03    -22.9652E-03
            1755               1     29.4371E-03     29.5231E-03    -15.7819E-03    -15.4052E-03
            1756               1     29.2095E-03     31.0349E-03    -16.2547E-03    -17.1395E-03
            1757               1     40.7816E-03     42.2525E-03    -23.4000E-03    -24.3025E-03
            1758               1     48.4419E-03     49.4468E-03    -27.9646E-03    -28.5478E-03
            1759               1     53.0494E-03     53.0580E-03    -30.5080E-03    -30.4873E-03
            1760               1     53.5378E-03     52.9321E-03    -30.4779E-03    -30.0568E-03
            1761               1     50.9717E-03     49.8897E-03    -28.3447E-03    -27.6746E-03
            1762               1     44.2678E-03     43.5075E-03    -23.6045E-03    -22.8324E-03
            1763               1     34.9696E-03     33.2662E-03    -15.7954E-03    -15.1714E-03
            1764               1     32.8351E-03     33.2660E-03    -16.3580E-03    -17.0522E-03
            1765               1     41.2587E-03     43.1646E-03    -23.2853E-03    -24.2192E-03
            1766               1     48.3707E-03     49.4735E-03    -27.8797E-03    -28.5192E-03
            1767               1     52.8440E-03     53.3590E-03    -30.4227E-03    -30.7564E-03
            1768               1     54.2758E-03     54.1261E-03    -30.7021E-03    -30.6510E-03
            1769               1     51.7700E-03     50.8251E-03    -28.3262E-03    -27.6379E-03
            1770               1     47.4702E-03     45.8674E-03    -23.7415E-03    -22.9791E-03
            1771               1     40.4866E-03     40.0558E-03    -16.2632E-03    -15.3410E-03
            1772               1     36.0337E-03     38.5413E-03    -15.9399E-03    -16.7405E-03
            1773               1     43.3050E-03     44.1797E-03    -23.3682E-03    -24.0190E-03
            1774               1     49.6231E-03     50.4373E-03    -28.5181E-03    -28.8495E-03
            1775               1     51.5288E-03     51.7000E-03    -29.6198E-03    -29.7999E-03
            1776               1     52.1723E-03     52.9070E-03    -29.4632E-03    -30.1044E-03
            1777               1     53.9206E-03     54.0248E-03    -28.8621E-03    -29.0927E-03
            1778               1     50.7810E-03     49.7698E-03    -24.1701E-03    -22.9919E-03
            1779               1     48.4950E-03     45.7004E-03    -16.1517E-03    -15.2441E-03
            1780               1     46.5766E-03     44.9245E-03    -17.3322E-03    -17.6543E-03
            1781               1     49.1294E-03     49.0990E-03    -26.3302E-03    -25.4704E-03
            1782               1     47.1876E-03     47.4181E-03    -27.1695E-03    -27.0752E-03
            1783               1     47.9413E-03     48.9754E-03    -27.5925E-03    -28.2714E-03
            1784               1     50.1778E-03     49.7746E-03    -27.9947E-03    -28.2254E-03
            1785               1     51.3161E-03     51.8561E-03    -27.2322E-03    -28.4110E-03
            1786               1     57.6226E-03     57.9414E-03    -26.3528E-03    -27.3634E-03
            1787               1     57.5342E-03     59.0254E-03    -18.4234E-03    -17.2388E-03
            1788               1     55.2468E-03     59.0319E-03    -22.7421E-03    -20.4543E-03
            1789               1     45.6585E-03     46.8344E-03    -24.9418E-03    -24.3925E-03
            1790               1     42.1332E-03     43.2966E-03    -24.1616E-03    -24.3801E-03
            1791               1     43.8923E-03     43.5530E-03    -25.1875E-03    -25.1435E-03
            1792               1     45.6165E-03     45.2740E-03    -25.2984E-03    -25.8264E-03
            1793               1     48.8995E-03     46.4923E-03    -24.9812E-03    -25.1222E-03
            1794               1     56.5524E-03     53.7822E-03    -25.8326E-03    -27.3063E-03
            1795               1     75.6045E-03     67.3227E-03    -23.5505E-03    -24.8262E-03
            1796               1     33.7297E-03     30.6486E-03    -18.9844E-03    -16.9170E-03
            1797               1     45.4450E-03     41.6084E-03    -25.7268E-03    -23.8630E-03
            1798               1     46.1994E-03     45.6921E-03    -26.6446E-03    -25.9354E-03
            1799               1     49.1873E-03     48.8486E-03    -27.6712E-03    -26.6043E-03
            1800               1     50.3074E-03     50.9131E-03    -26.0787E-03    -25.5777E-03
            1801               1     51.7788E-03     51.7767E-03    -23.4775E-03    -22.8220E-03
            1802               1     50.7968E-03     51.3345E-03    -18.2610E-03    -18.2946E-03
            1803               1     41.3125E-03     45.2062E-03    -8.46821E-03    -10.4844E-03
            1804               1     30.0038E-03     35.3929E-03    -16.1984E-03    -18.5319E-03
            1805               1     44.9415E-03     41.1918E-03    -25.6340E-03    -23.4523E-03
            1806               1     47.0619E-03     43.3548E-03    -27.1334E-03    -24.8433E-03
            1807               1     48.7968E-03     47.1404E-03    -27.1477E-03    -25.6350E-03
            1808               1     52.2561E-03     50.9034E-03    -26.4520E-03    -24.6830E-03
            1809               1     55.3521E-03     55.7197E-03    -23.6998E-03    -22.8493E-03
            1810               1     58.2218E-03     60.2097E-03    -20.0606E-03    -20.2540E-03
            1811               1     58.3725E-03     58.2786E-03    -13.0462E-03    -14.4844E-03
            1812               1     35.1886E-03     36.0050E-03    -15.5005E-03    -17.3969E-03
            1813               1     40.0344E-03     41.9500E-03    -22.6326E-03    -23.4585E-03
            1814               1     47.4115E-03     44.8529E-03    -27.3196E-03    -25.8247E-03
            1815               1     50.2679E-03     47.6064E-03    -27.8343E-03    -25.9998E-03
            1816               1     54.5759E-03     53.3459E-03    -27.0962E-03    -25.7668E-03
            1817               1     59.9423E-03     59.8212E-03    -25.2590E-03    -24.1873E-03
            1818               1     63.7151E-03     64.0740E-03    -21.2562E-03    -21.2493E-03
            1819               1     65.6421E-03     66.5997E-03    -14.0010E-03    -14.4384E-03
            1820               1     39.4015E-03     41.1701E-03    -15.8947E-03    -16.8201E-03
            1821               1     41.0740E-03     41.9562E-03    -22.2576E-03    -22.8878E-03
            1822               1     45.3406E-03     45.3924E-03    -26.1463E-03    -26.2073E-03
            1823               1     51.5536E-03     49.8718E-03    -28.4537E-03    -27.4736E-03
            1824               1     56.9255E-03     55.6581E-03    -27.9628E-03    -26.8256E-03
            1825               1     62.8449E-03     62.1532E-03    -25.9220E-03    -25.1191E-03
            1826               1     68.0016E-03     68.1333E-03    -21.4093E-03    -20.9643E-03
            1827               1     75.0476E-03     73.6445E-03    -14.0414E-03    -14.1651E-03
            1828               1     45.1241E-03     45.0443E-03    -15.9341E-03    -16.6995E-03
            1829               1     41.9148E-03     43.6870E-03    -21.8448E-03    -22.6574E-03
            1830               1     45.7039E-03     46.2949E-03    -26.3387E-03    -26.6975E-03
            1831               1     51.2781E-03     50.9286E-03    -28.2669E-03    -28.1640E-03
            1832               1     58.4802E-03     57.6827E-03    -28.5376E-03    -28.0253E-03
            1833               1     65.4737E-03     64.8999E-03    -26.1275E-03    -25.3537E-03
            1834               1     73.3533E-03     72.1682E-03    -21.4089E-03    -20.8450E-03
            1835               1     82.0652E-03     81.4409E-03    -14.6362E-03    -14.1960E-03
            1836               1     50.1704E-03     50.8684E-03    -15.7219E-03    -16.1746E-03
            1837               1     45.0323E-03     45.9206E-03    -22.0576E-03    -22.7474E-03
            1838               1     45.5105E-03     47.0369E-03    -26.1340E-03    -26.9581E-03
            1839               1     51.4692E-03     52.1287E-03    -28.5708E-03    -29.0300E-03
            1840               1     58.9864E-03     58.8836E-03    -28.4266E-03    -28.3825E-03
            1841               1     68.4984E-03     67.8006E-03    -26.4428E-03    -26.0474E-03
            1842               1     78.2579E-03     77.7611E-03    -21.7924E-03    -20.9566E-03
            1843               1     90.6544E-03     88.2505E-03    -14.4142E-03    -13.7661E-03
            1844               1     56.7859E-03     55.9986E-03    -16.2374E-03    -16.1499E-03
            1845               1     47.3821E-03     49.0481E-03    -21.9635E-03    -22.6098E-03
            1846               1     45.7538E-03     47.2843E-03    -26.0047E-03    -26.8603E-03
            1847               1     50.7950E-03     52.2848E-03    -28.3959E-03    -29.4846E-03
            1848               1     60.3966E-03     61.5299E-03    -28.7797E-03    -29.6332E-03
            1849               1     70.3770E-03     70.3896E-03    -26.3067E-03    -25.9047E-03
            1850               1     83.8236E-03     82.3206E-03    -22.0989E-03    -21.4080E-03
            1851               1     97.6311E-03     96.9111E-03    -15.6049E-03    -14.4606E-03
            1852               1     61.2201E-03     62.8455E-03    -15.2202E-03    -15.2529E-03
            1853               1     50.8637E-03     51.3672E-03    -21.8528E-03    -21.9638E-03
            1854               1     47.2101E-03     49.4656E-03    -26.5317E-03    -27.5244E-03
            1855               1     49.4495E-03     51.0958E-03    -27.4598E-03    -28.7472E-03
            1856               1     57.8824E-03     59.4436E-03    -27.5119E-03    -29.3201E-03
            1857               1     74.3869E-03     75.9260E-03    -27.5045E-03    -28.7344E-03
            1858               1     88.5141E-03     88.9593E-03    -22.9219E-03    -21.3701E-03
            1859               1     106.256E-03     102.687E-03    -15.4056E-03    -14.0195E-03
            1860               1     72.3815E-03     70.5448E-03    -16.7945E-03    -15.8453E-03
            1861               1     56.5637E-03     58.3451E-03    -24.6148E-03    -24.1479E-03
            1862               1     43.4383E-03     45.5593E-03    -24.5951E-03    -25.4331E-03
            1863               1     44.5329E-03     46.6763E-03    -24.8576E-03    -26.5794E-03
            1864               1     56.1419E-03     56.0544E-03    -25.5910E-03    -27.0463E-03
            1865               1     70.8645E-03     70.4839E-03    -26.1022E-03    -28.5882E-03
            1866               1     97.0881E-03     97.6632E-03    -27.0019E-03    -28.6844E-03
            1867               1     115.898E-03     118.372E-03    -19.5144E-03    -17.0571E-03
            1868               1     79.5130E-03     81.7250E-03    -23.7155E-03    -21.2688E-03
            1869               1     50.1674E-03     51.6226E-03    -22.4047E-03    -22.4091E-03
            1870               1     36.0630E-03     37.9293E-03    -20.0100E-03    -20.5998E-03
            1871               1     37.7200E-03     37.3642E-03    -20.6157E-03    -21.0953E-03
            1872               1     49.3791E-03     46.9516E-03    -21.5762E-03    -22.6736E-03
            1873               1     67.8223E-03     61.7135E-03    -22.6210E-03    -23.3139E-03
            1874               1     92.6604E-03     84.0927E-03    -27.4132E-03    -29.8069E-03
            1875               1     135.514E-03     120.983E-03    -30.5096E-03    -31.2813E-03
            1876               1     45.0856E-03     29.3644E-03    -16.0520E-03    -14.0767E-03
            1877               1     50.0007E-03     41.0409E-03    -25.6088E-03    -22.9620E-03
            1878               1     47.2583E-03     45.7474E-03    -27.2422E-03    -26.0177E-03
            1879               1     53.4631E-03     53.2828E-03    -28.4812E-03    -26.8060E-03
            1880               1     62.1016E-03     61.8797E-03    -25.7681E-03    -24.6457E-03
            1881               1     75.3747E-03     73.2232E-03    -21.8622E-03    -20.7220E-03
            1882               1     87.6556E-03     83.4180E-03    -13.0585E-03    -12.1745E-03
            1883               1     101.070E-03     98.6179E-03     1.22793E-03    -1.16605E-03
            1884               1     45.5860E-03     54.1560E-03    -15.0709E-03    -18.6040E-03
            1885               1     47.1435E-03     42.4898E-03    -24.2275E-03    -21.3286E-03
            1886               1     45.9419E-03     39.9143E-03    -26.4361E-03    -22.8452E-03
            1887               1     50.6651E-03     47.6513E-03    -25.9469E-03    -23.1357E-03
            1888               1     64.3215E-03     62.6109E-03    -24.7863E-03    -21.7921E-03
            1889               1     80.4157E-03     79.8859E-03    -20.8794E-03    -18.7388E-03
            1890               1     99.9255E-03     102.357E-03    -15.5615E-03    -15.1865E-03
            1891               1     116.958E-03     117.554E-03    -9.47520E-03    -12.2899E-03
            1892               1     55.7543E-03     54.9361E-03    -14.4967E-03    -17.1134E-03
            1893               1     43.3815E-03     46.6176E-03    -21.5936E-03    -22.5714E-03
            1894               1     44.2819E-03     39.8410E-03    -25.4994E-03    -22.9233E-03
            1895               1     51.8617E-03     47.7007E-03    -26.0469E-03    -22.9290E-03
            1896               1     67.1758E-03     65.1054E-03    -24.8346E-03    -22.2082E-03
            1897               1     86.8023E-03     87.4748E-03    -22.3025E-03    -20.3779E-03
            1898               1     106.406E-03     107.873E-03    -19.0537E-03    -19.6192E-03
            1899               1     124.086E-03     124.013E-03    -12.2440E-03    -13.2747E-03
            1900               1     60.2104E-03     61.9465E-03    -15.1562E-03    -16.3544E-03
            1901               1     44.9596E-03     45.7087E-03    -20.5758E-03    -21.1017E-03
            1902               1     42.6656E-03     41.8048E-03    -24.5401E-03    -24.1238E-03
            1903               1     52.9396E-03     49.3701E-03    -26.1907E-03    -24.1716E-03
            1904               1     69.9315E-03     68.4158E-03    -25.4904E-03    -23.5243E-03
            1905               1     90.9198E-03     90.5833E-03    -23.8646E-03    -22.8215E-03
            1906               1     111.029E-03     110.888E-03    -19.2400E-03    -18.9445E-03
            1907               1     133.205E-03     131.631E-03    -12.3985E-03    -13.1254E-03
            1908               1     66.7528E-03     65.9068E-03    -14.9403E-03    -15.9637E-03
            1909               1     47.3566E-03     48.8632E-03    -20.7269E-03    -21.3727E-03
            1910               1     42.1210E-03     41.9146E-03    -24.2514E-03    -24.1365E-03
            1911               1     53.0061E-03     51.7006E-03    -26.1585E-03    -25.6025E-03
            1912               1     72.3535E-03     70.7802E-03    -26.2841E-03    -25.2172E-03
            1913               1     93.3796E-03     92.5899E-03    -23.7855E-03    -22.8959E-03
            1914               1     116.996E-03     115.893E-03    -19.7869E-03    -19.4058E-03
            1915               1     141.066E-03     138.627E-03    -13.2293E-03    -12.9756E-03
            1916               1     71.7859E-03     71.5033E-03    -15.5579E-03    -15.7044E-03
            1917               1     50.3178E-03     51.2494E-03    -20.4612E-03    -21.1415E-03
            1918               1     42.7030E-03     43.7304E-03    -24.4514E-03    -25.0643E-03
            1919               1     53.0512E-03     52.6213E-03    -26.3982E-03    -26.4149E-03
            1920               1     73.0637E-03     72.6026E-03    -26.2702E-03    -26.1521E-03
            1921               1     97.2377E-03     96.2535E-03    -24.3191E-03    -23.6537E-03
            1922               1     121.752E-03     120.064E-03    -19.7019E-03    -19.0889E-03
            1923               1     147.827E-03     145.905E-03    -13.4306E-03    -13.1010E-03
            1924               1     77.6930E-03     77.2548E-03    -14.9563E-03    -15.2640E-03
            1925               1     54.1394E-03     54.8657E-03    -20.8585E-03    -21.3353E-03
            1926               1     43.1128E-03     44.9423E-03    -24.4855E-03    -25.4756E-03
            1927               1     52.7903E-03     53.9973E-03    -26.5213E-03    -27.5499E-03
            1928               1     74.1753E-03     74.1823E-03    -26.4996E-03    -26.8099E-03
            1929               1     99.9003E-03     99.4695E-03    -24.4922E-03    -24.4408E-03
            1930               1     127.183E-03     126.232E-03    -20.2372E-03    -19.3591E-03
            1931               1     155.987E-03     152.446E-03    -13.3222E-03    -12.5460E-03
            1932               1     83.7894E-03     82.8606E-03    -15.6291E-03    -14.9220E-03
            1933               1     57.3245E-03     58.9324E-03    -20.6525E-03    -21.2177E-03
            1934               1     43.2299E-03     45.4062E-03    -24.1620E-03    -25.3648E-03
            1935               1     51.8448E-03     53.9449E-03    -26.5582E-03    -28.4541E-03
            1936               1     75.7558E-03     77.8097E-03    -26.9479E-03    -28.7594E-03
            1937               1     102.277E-03     102.826E-03    -24.5460E-03    -24.3642E-03
            1938               1     132.334E-03     130.768E-03    -20.7149E-03    -20.0029E-03
            1939               1     162.188E-03     160.775E-03    -14.9870E-03    -13.4751E-03
            1940               1     88.3960E-03     89.3411E-03    -14.3155E-03    -13.6408E-03
            1941               1     60.8268E-03     61.9738E-03    -20.1201E-03    -19.8918E-03
            1942               1     44.8636E-03     48.9112E-03    -24.5923E-03    -26.4643E-03
            1943               1     50.3928E-03     53.2518E-03    -25.3531E-03    -27.8959E-03
            1944               1     72.6793E-03     74.3968E-03    -25.7989E-03    -28.8208E-03
            1945               1     106.558E-03     109.202E-03    -26.4283E-03    -28.6366E-03
            1946               1     136.842E-03     138.344E-03    -21.8958E-03    -19.8152E-03
            1947               1     170.098E-03     165.592E-03    -14.8296E-03    -12.8274E-03
            1948               1     98.5386E-03     97.6718E-03    -15.9442E-03    -13.7337E-03
            1949               1     66.3278E-03     69.7485E-03    -22.7215E-03    -22.8587E-03
            1950               1     39.4951E-03     43.6577E-03    -21.8441E-03    -23.8503E-03
            1951               1     44.0949E-03     46.9556E-03    -22.2411E-03    -25.1545E-03
            1952               1     70.9426E-03     70.6239E-03    -23.3757E-03    -26.1154E-03
            1953               1     101.161E-03     99.6405E-03    -25.2717E-03    -29.0744E-03
            1954               1     145.558E-03     146.589E-03    -28.0380E-03    -30.3464E-03
            1955               1     179.441E-03     182.789E-03    -20.8664E-03    -16.9581E-03
            1956               1     104.267E-03     103.353E-03    -24.2913E-03    -21.7219E-03
            1957               1     57.6374E-03     57.4724E-03    -19.4524E-03    -20.1519E-03
            1958               1     30.3132E-03     32.4460E-03    -15.8450E-03    -16.8950E-03
            1959               1     35.3364E-03     34.6304E-03    -16.0827E-03    -17.1554E-03
            1960               1     62.5429E-03     57.6359E-03    -18.1043E-03    -19.8096E-03
            1961               1     96.9089E-03     87.2936E-03    -20.6059E-03    -21.8429E-03
            1962               1     136.572E-03     122.685E-03    -29.4384E-03    -32.7692E-03
            1963               1     199.509E-03     179.166E-03    -37.9991E-03    -38.2701E-03
            1964               1     67.6264E-03     44.7499E-03    -13.2807E-03    -11.4026E-03
            1965               1     57.6936E-03     43.4256E-03    -25.5168E-03    -22.1530E-03
            1966               1     48.8864E-03     46.3914E-03    -28.1141E-03    -26.4108E-03
            1967               1     59.6900E-03     59.7824E-03    -29.4376E-03    -27.1821E-03
            1968               1     79.0575E-03     77.6429E-03    -25.6164E-03    -23.8951E-03
            1969               1     106.072E-03     101.264E-03    -20.3606E-03    -18.7177E-03
            1970               1     132.470E-03     123.540E-03    -7.69212E-03    -5.88776E-03
            1971               1     167.367E-03     159.202E-03     11.2517E-03     8.40278E-03
            1972               1     69.1473E-03     79.3215E-03    -13.8555E-03    -18.5574E-03
            1973               1     53.9667E-03     49.6019E-03    -23.0082E-03    -19.4504E-03
            1974               1     44.8367E-03     36.7159E-03    -25.7152E-03    -20.9352E-03
            1975               1     55.2076E-03     51.3700E-03    -24.9161E-03    -20.8945E-03
            1976               1     82.6254E-03     80.8060E-03    -23.2183E-03    -19.0115E-03
            1977               1     112.685E-03     111.471E-03    -18.0559E-03    -14.6450E-03
            1978               1     149.492E-03     152.497E-03    -11.0697E-03    -10.1183E-03
            1979               1     181.091E-03     182.376E-03    -5.79813E-03    -10.0108E-03
            1980               1     80.7783E-03     78.9384E-03    -13.5064E-03    -16.7811E-03
            1981               1     50.3718E-03     55.1072E-03    -20.3824E-03    -21.5926E-03
            1982               1     41.6080E-03     35.5976E-03    -23.8789E-03    -20.3489E-03
            1983               1     56.6527E-03     51.7145E-03    -24.2752E-03    -19.9540E-03
            1984               1     85.9457E-03     83.7222E-03    -22.6749E-03    -18.8480E-03
            1985               1     121.443E-03     123.117E-03    -19.5041E-03    -16.6993E-03
            1986               1     155.557E-03     157.887E-03    -16.8325E-03    -17.9674E-03
            1987               1     187.229E-03     186.172E-03    -10.6062E-03    -12.2343E-03
            1988               1     84.4895E-03     86.2924E-03    -13.9815E-03    -15.5581E-03
            1989               1     52.7030E-03     53.5038E-03    -19.0360E-03    -19.5239E-03
            1990               1     39.8278E-03     38.1935E-03    -22.7857E-03    -22.0100E-03
            1991               1     57.7869E-03     53.0009E-03    -24.1314E-03    -21.2710E-03
            1992               1     89.7243E-03     88.4904E-03    -23.1759E-03    -20.4007E-03
            1993               1     125.617E-03     125.723E-03    -21.8623E-03    -20.6371E-03
            1994               1     160.179E-03     159.814E-03    -17.3730E-03    -17.1461E-03
            1995               1     196.140E-03     193.913E-03    -10.7286E-03    -11.9120E-03
            1996               1     91.2968E-03     89.7706E-03    -13.8662E-03    -15.0184E-03
            1997               1     55.1143E-03     56.8292E-03    -19.1532E-03    -19.8112E-03
            1998               1     38.9673E-03     38.2769E-03    -22.3656E-03    -21.9937E-03
            1999               1     58.3045E-03     56.2684E-03    -24.0768E-03    -23.1685E-03
            2000               1     92.4012E-03     90.6523E-03    -24.2369E-03    -22.8661E-03
            2001               1     128.140E-03     127.322E-03    -21.7891E-03    -20.7050E-03
            2002               1     166.110E-03     164.728E-03    -18.1387E-03    -17.8465E-03
            2003               1     203.968E-03     200.304E-03    -12.1371E-03    -11.9671E-03
            2004               1     95.5574E-03     95.0909E-03    -14.4591E-03    -14.5909E-03
            2005               1     58.5713E-03     59.3978E-03    -18.9357E-03    -19.5914E-03
            2006               1     39.6500E-03     40.5383E-03    -22.5971E-03    -23.1898E-03
            2007               1     58.3758E-03     57.4652E-03    -24.3966E-03    -24.3917E-03
            2008               1     93.1662E-03     92.4866E-03    -24.2686E-03    -24.1289E-03
            2009               1     132.158E-03     131.043E-03    -22.4648E-03    -21.7792E-03
            2010               1     170.584E-03     168.320E-03    -18.1763E-03    -17.5388E-03
            2011               1     209.939E-03     207.225E-03    -12.3318E-03    -11.9876E-03
            2012               1     101.651E-03     100.634E-03    -13.8868E-03    -14.0202E-03
            2013               1     62.4312E-03     63.2650E-03    -19.3314E-03    -19.7585E-03
            2014               1     40.0711E-03     42.2689E-03    -22.6851E-03    -23.8855E-03
            2015               1     58.0146E-03     59.0132E-03    -24.5946E-03    -25.9363E-03
            2016               1     94.3285E-03     94.2079E-03    -24.5383E-03    -25.1132E-03
            2017               1     134.565E-03     134.053E-03    -22.8024E-03    -22.8988E-03
            2018               1     175.787E-03     174.573E-03    -18.7847E-03    -17.7801E-03
            2019               1     217.966E-03     213.211E-03    -12.2708E-03    -11.3654E-03
            2020               1     107.044E-03     106.170E-03    -14.5969E-03    -13.4831E-03
            2021               1     65.9250E-03     67.7830E-03    -19.1087E-03    -19.6639E-03
            2022               1     40.0544E-03     42.7610E-03    -22.2228E-03    -23.7602E-03
            2023               1     56.3699E-03     58.3887E-03    -24.6239E-03    -27.3129E-03
            2024               1     95.9150E-03     98.2424E-03    -25.2687E-03    -27.8413E-03
            2025               1     136.806E-03     137.734E-03    -22.8548E-03    -22.8302E-03
            2026               1     180.488E-03     178.675E-03    -19.4982E-03    -18.6697E-03
            2027               1     223.250E-03     221.238E-03    -14.4500E-03    -12.4534E-03
            2028               1     111.636E-03     112.067E-03    -13.1785E-03    -11.7839E-03
            2029               1     69.2029E-03     71.3106E-03    -18.1841E-03    -17.7227E-03
            2030               1     41.5366E-03     47.3268E-03    -22.4643E-03    -25.2435E-03
            2031               1     54.9397E-03     58.1507E-03    -23.2497E-03    -26.9477E-03
            2032               1     91.9224E-03     93.3457E-03    -24.0835E-03    -28.2577E-03
            2033               1     140.978E-03     144.349E-03    -25.4782E-03    -28.5199E-03
            2034               1     184.521E-03     186.912E-03    -20.9698E-03    -18.3191E-03
            2035               1     230.423E-03     224.990E-03    -14.3402E-03    -11.6787E-03
            2036               1     120.481E-03     120.864E-03    -14.8218E-03    -11.4126E-03
            2037               1     74.5447E-03     79.2230E-03    -20.5148E-03    -21.2669E-03
            2038               1     34.8735E-03     40.8529E-03    -18.9789E-03    -22.1187E-03
            2039               1     47.3305E-03     50.0576E-03    -19.6073E-03    -23.6949E-03
            2040               1     89.9581E-03     89.0287E-03    -21.2791E-03    -25.1952E-03
            2041               1     133.426E-03     130.836E-03    -24.5092E-03    -29.5265E-03
            2042               1     193.145E-03     194.589E-03    -29.1038E-03    -31.9447E-03
            2043               1     239.447E-03     243.616E-03    -22.2056E-03    -16.8694E-03
            2044               1     124.950E-03     120.716E-03    -24.1544E-03    -21.4740E-03
            2045               1     64.6149E-03     61.9874E-03    -16.2155E-03    -17.5695E-03
            2046               1     24.2893E-03     26.2906E-03    -11.7077E-03    -13.2239E-03
            2047               1     38.3950E-03     37.0135E-03    -11.7521E-03    -13.3873E-03
            2048               1     80.2314E-03     73.1601E-03    -14.8818E-03    -17.1683E-03
            2049               1     127.777E-03     115.070E-03    -18.8420E-03    -20.5693E-03
            2050               1     179.697E-03     161.080E-03    -31.4759E-03    -35.6646E-03
            2051               1     259.785E-03     234.173E-03    -45.1147E-03    -44.9169E-03
            2052               1     91.0150E-03     66.4841E-03    -11.0951E-03    -9.53067E-03
            2053               1     66.4821E-03     49.3039E-03    -25.4480E-03    -21.8251E-03
            2054               1     51.9673E-03     48.8487E-03    -29.7802E-03    -27.9047E-03
            2055               1     67.2771E-03     67.7357E-03    -30.7079E-03    -28.1933E-03
            2056               1     97.5877E-03     95.3529E-03    -26.0996E-03    -24.0190E-03
            2057               1     137.146E-03     130.413E-03    -19.4391E-03    -17.3353E-03
            2058               1     175.886E-03     163.464E-03    -2.84783E-03    -257.639E-06
            2059               1     229.192E-03     217.015E-03     20.4456E-03     16.8664E-03
            2060               1     94.1723E-03     105.271E-03    -12.6079E-03    -18.1328E-03
            2061               1     64.3281E-03     61.5461E-03    -22.4637E-03    -18.8127E-03
            2062               1     43.8023E-03     35.1574E-03    -25.0408E-03    -19.9732E-03
            2063               1     61.8106E-03     58.2393E-03    -24.6480E-03    -20.2651E-03
            2064               1     103.054E-03     101.806E-03    -22.0950E-03    -17.2194E-03
            2065               1     145.052E-03     144.119E-03    -15.8182E-03    -11.4602E-03
            2066               1     197.567E-03     201.995E-03    -7.30251E-03    -5.79424E-03
            2067               1     242.281E-03     243.832E-03    -2.40133E-03    -7.83583E-03
            2068               1     106.277E-03     104.692E-03    -12.6541E-03    -16.1666E-03
            2069               1     59.9580E-03     66.8470E-03    -19.0255E-03    -20.7917E-03
            2070               1     40.6108E-03     35.1162E-03    -23.0304E-03    -19.6517E-03
            2071               1     63.4496E-03     59.3342E-03    -22.7518E-03    -18.4679E-03
            2072               1     106.232E-03     105.468E-03    -21.3811E-03    -17.4522E-03
            2073               1     156.793E-03     160.873E-03    -17.3843E-03    -13.9840E-03
            2074               1     203.049E-03     206.797E-03    -15.0027E-03    -16.3903E-03
            2075               1     246.049E-03     245.431E-03    -9.77171E-03    -11.6513E-03
            2076               1     110.468E-03     112.914E-03    -11.6359E-03    -13.2765E-03
            2077               1     63.7459E-03     65.8677E-03    -17.7767E-03    -18.4414E-03
            2078               1     36.8946E-03     37.1627E-03    -20.9351E-03    -21.1777E-03
            2079               1     64.6466E-03     61.2951E-03    -22.9281E-03    -21.2445E-03
            2080               1     110.927E-03     111.961E-03    -21.3506E-03    -19.1882E-03
            2081               1     160.214E-03     162.952E-03    -20.9832E-03    -20.3448E-03
            2082               1     207.687E-03     209.702E-03    -16.7225E-03    -15.8216E-03
            2083               1     256.227E-03     252.645E-03    -9.35379E-03    -10.0233E-03
            2084               1     117.384E-03     116.587E-03    -12.4463E-03    -12.2689E-03
            2085               1     65.1462E-03     69.6328E-03    -16.5018E-03    -17.4892E-03
            2086               1     35.6246E-03     37.0073E-03    -20.0605E-03    -20.9002E-03
            2087               1     63.2915E-03     62.6615E-03    -21.9106E-03    -23.7121E-03
            2088               1     113.882E-03     116.010E-03    -23.7374E-03    -25.2324E-03
            2089               1     162.133E-03     165.223E-03    -20.8390E-03    -19.9784E-03
            2090               1     213.256E-03     213.261E-03    -18.2167E-03    -17.3990E-03
            2091               1     262.077E-03     260.258E-03    -14.1744E-03    -11.8428E-03
            2092               1     120.656E-03     121.995E-03    -10.9213E-03    -9.33030E-03
            2093               1     68.6574E-03     72.3043E-03    -15.4812E-03    -15.1893E-03
            2094               1     34.8588E-03     41.2906E-03    -19.2594E-03    -22.4435E-03
            2095               1     62.7021E-03     64.0122E-03    -21.0547E-03    -24.6925E-03
            2096               1     108.906E-03     109.709E-03    -21.9099E-03    -26.0971E-03
            2097               1     167.005E-03     171.265E-03    -24.5951E-03    -27.6122E-03
            2098               1     216.682E-03     220.564E-03    -20.3036E-03    -16.9741E-03
            2099               1     268.389E-03     263.157E-03    -13.7115E-03    -10.3495E-03
            2100               1     128.680E-03     130.018E-03    -12.7560E-03    -8.72720E-03
            2101               1     73.2684E-03     79.5067E-03    -16.9823E-03    -18.2418E-03
            2102               1     28.0764E-03     35.1365E-03    -15.7820E-03    -19.5405E-03
            2103               1     53.8425E-03     54.6100E-03    -16.5105E-03    -21.1870E-03
            2104               1     107.270E-03     105.150E-03    -19.3755E-03    -23.6408E-03
            2105               1     157.349E-03     154.012E-03    -23.5825E-03    -29.0836E-03
            2106               1     225.360E-03     227.198E-03    -29.6580E-03    -32.5610E-03
            2107               1     278.004E-03     282.779E-03    -23.2621E-03    -16.5462E-03
            2108               1     130.892E-03     125.559E-03    -21.9264E-03    -18.9669E-03
            2109               1     63.6677E-03     59.9997E-03    -12.3601E-03    -14.1047E-03
            2110               1     15.3386E-03     17.8624E-03    -7.36456E-03    -9.25001E-03
            2111               1     46.5539E-03     43.4235E-03    -8.05890E-03    -9.96449E-03
            2112               1     96.3611E-03     87.0256E-03    -12.1025E-03    -14.6951E-03
            2113               1     150.961E-03     135.704E-03    -17.4847E-03    -19.4185E-03
            2114               1     208.997E-03     187.069E-03    -32.8269E-03    -37.4195E-03
            2115               1     298.080E-03     269.239E-03    -49.6925E-03    -48.9797E-03
            2116               1     1.31866E-03     1.29692E-03     662.124E-06     671.121E-06
            2117               1     1.47950E-03     1.49277E-03     849.937E-06     860.413E-06
            2118               1     1.49012E-03     1.49996E-03     858.553E-06     865.142E-06
            2119               1     1.46744E-03     1.47904E-03     846.963E-06     853.777E-06
            2120               1     1.46744E-03     1.47904E-03     846.963E-06     853.777E-06
            2121               1     1.49012E-03     1.49996E-03     858.553E-06     865.142E-06
            2122               1     1.47950E-03     1.49277E-03     849.937E-06     860.413E-06
            2123               1     1.31866E-03     1.29692E-03     662.124E-06     671.121E-06
            2124               1     1.13934E-03     1.14240E-03     645.630E-06     646.128E-06
            2125               1     1.60224E-03     1.63503E-03     920.355E-06     938.865E-06
            2126               1     1.49321E-03     1.51492E-03     860.521E-06     873.167E-06
            2127               1     1.48496E-03     1.50907E-03     857.121E-06     871.054E-06
            2128               1     1.48496E-03     1.50907E-03     857.121E-06     871.054E-06
            2129               1     1.49321E-03     1.51492E-03     860.521E-06     873.167E-06
            2130               1     1.60224E-03     1.63503E-03     920.355E-06     938.865E-06
            2131               1     1.13934E-03     1.14240E-03     645.630E-06     646.128E-06
            2132               1     1.09082E-03     1.09577E-03     613.583E-06     623.502E-06
            2133               1     1.46649E-03     1.47566E-03     840.274E-06     842.676E-06
            2134               1     1.52551E-03     1.53988E-03     879.378E-06     886.638E-06
            2135               1     1.51167E-03     1.52469E-03     872.668E-06     880.056E-06
            2136               1     1.51167E-03     1.52469E-03     872.668E-06     880.056E-06
            2137               1     1.52551E-03     1.53988E-03     879.378E-06     886.638E-06
            2138               1     1.46649E-03     1.47566E-03     840.274E-06     842.676E-06
            2139               1     1.09082E-03     1.09577E-03     613.583E-06     623.502E-06
            3835               1     98.4989E-03     91.8004E-03     41.4385E-03     43.6689E-03
            3836               1     88.2135E-03     94.3280E-03     50.5353E-03     53.2949E-03
            3837               1     109.635E-03     113.317E-03     55.4205E-03     56.5153E-03
            3838               1     140.220E-03     142.866E-03     61.5932E-03     63.1793E-03
            3839               1     170.908E-03     170.203E-03     68.1072E-03     69.8293E-03
            3840               1     205.173E-03     200.703E-03     72.3587E-03     74.1354E-03
            3841               1     250.559E-03     241.822E-03     85.3896E-03     89.4694E-03
            3842               1     337.754E-03     319.326E-03     89.3041E-03     88.2425E-03
            3843               1     78.1355E-03     79.8315E-03     40.4626E-03     39.1164E-03
            3844               1     104.144E-03     109.201E-03     59.3226E-03     62.4512E-03
            3845               1     130.517E-03     135.807E-03     65.3349E-03     68.7534E-03
            3846               1     156.204E-03     159.322E-03     70.3871E-03     73.1695E-03
            3847               1     186.916E-03     190.762E-03     74.9250E-03     78.4288E-03
            3848               1     212.359E-03     215.686E-03     77.7728E-03     82.4813E-03
            3849               1     262.640E-03     268.245E-03     81.2391E-03     84.4727E-03
            3850               1     288.435E-03     289.767E-03     56.8138E-03     53.8478E-03
            3851               1     73.7210E-03     72.9407E-03     41.7645E-03     41.4645E-03
            3852               1     111.672E-03     110.008E-03     61.5575E-03     61.7313E-03
            3853               1     143.413E-03     144.965E-03     72.4736E-03     74.8070E-03
            3854               1     170.322E-03     173.333E-03     77.0073E-03     79.5915E-03
            3855               1     190.123E-03     193.440E-03     77.0530E-03     79.8434E-03
            3856               1     222.356E-03     229.866E-03     79.1898E-03     82.6263E-03
            3857               1     238.287E-03     241.310E-03     65.5368E-03     65.0114E-03
            3858               1     252.014E-03     249.992E-03     42.8127E-03     43.8168E-03
            3859               1     77.8937E-03     79.0349E-03     43.8429E-03     45.2479E-03
            3860               1     123.380E-03     122.523E-03     66.0621E-03     66.4600E-03
            3861               1     154.555E-03     152.752E-03     77.8789E-03     78.1514E-03
            3862               1     169.993E-03     169.588E-03     77.9807E-03     79.1919E-03
            3863               1     193.939E-03     195.369E-03     78.0660E-03     78.8145E-03
            3864               1     210.222E-03     212.460E-03     71.0321E-03     70.5559E-03
            3865               1     222.348E-03     226.980E-03     61.4207E-03     64.0591E-03
            3866               1     227.528E-03     227.221E-03     42.2855E-03     43.9522E-03
            3867               1     97.8267E-03     100.533E-03     50.7823E-03     52.9167E-03
            3868               1     144.443E-03     142.975E-03     76.0558E-03     76.5107E-03
            3869               1     154.158E-03     152.264E-03     78.7575E-03     79.0320E-03
            3870               1     170.813E-03     167.705E-03     78.7152E-03     78.0663E-03
            3871               1     183.893E-03     180.673E-03     73.9485E-03     73.0802E-03
            3872               1     197.674E-03     194.535E-03     66.5655E-03     65.0709E-03
            3873               1     206.414E-03     207.879E-03     54.6066E-03     54.1821E-03
            3874               1     202.078E-03     204.816E-03     33.8876E-03     39.0492E-03
            3875               1     137.176E-03     135.519E-03     63.9838E-03     65.9018E-03
            3876               1     149.830E-03     149.364E-03     80.3555E-03     81.1019E-03
            3877               1     158.071E-03     155.488E-03     80.5117E-03     80.0394E-03
            3878               1     168.974E-03     165.822E-03     80.1155E-03     79.8653E-03
            3879               1     176.925E-03     171.659E-03     73.7590E-03     73.0282E-03
            3880               1     182.348E-03     174.781E-03     63.4797E-03     62.5915E-03
            3881               1     180.592E-03     168.901E-03     46.0036E-03     44.4148E-03
            3882               1     162.305E-03     153.256E-03     17.3142E-03     20.0989E-03
            3883               1     68.6606E-03     67.1638E-03     30.6304E-03     30.5248E-03
            3884               1     81.5225E-03     79.7708E-03     30.6304E-03     30.5248E-03
            3885               1     96.1679E-03     94.2682E-03     30.6304E-03     30.5248E-03
            3886               1     111.899E-03     109.910E-03     30.6304E-03     30.5248E-03
            3887               1     128.316E-03     126.273E-03     30.6304E-03     30.5248E-03
            3888               1     145.188E-03     143.108E-03     30.6304E-03     30.5248E-03
            3889               1     162.372E-03     160.268E-03     30.6304E-03     30.5248E-03
            3890               1     179.779E-03     177.659E-03     30.6304E-03     30.5248E-03
            3891               1     147.045E-03     104.429E-03     34.0602E-03     34.7628E-03
            3892               1     87.3166E-03     58.5658E-03     29.6221E-03     31.1221E-03
            3893               1     47.9065E-03     49.6213E-03     24.5545E-03     25.3965E-03
            3894               1     52.1707E-03     85.5836E-03     24.1987E-03     25.5381E-03
            3895               1     93.1088E-03     129.665E-03     24.6033E-03     25.6093E-03
            3896               1     142.929E-03     178.025E-03     25.5614E-03     26.7142E-03
            3897               1     193.069E-03     225.226E-03     34.5656E-03     35.8264E-03
            3898               1     265.150E-03     292.895E-03     52.2844E-03     53.0836E-03
            3899               1     73.8141E-03     121.989E-03     19.6656E-03     19.9756E-03
            3900               1     73.6738E-03     105.405E-03     39.6610E-03     41.1188E-03
            3901               1     75.2173E-03     75.5696E-03     40.7012E-03     41.7209E-03
            3902               1     103.821E-03     80.0405E-03     41.8921E-03     43.0718E-03
            3903               1     143.508E-03     110.351E-03     41.7372E-03     42.7854E-03
            3904               1     184.826E-03     150.262E-03     39.3244E-03     40.6722E-03
            3905               1     232.245E-03     197.849E-03     35.4236E-03     36.0684E-03
            3906               1     259.670E-03     227.293E-03    -138.184E-06     1.93476E-03
            3907               1     117.146E-03     81.8813E-03     22.4388E-03     28.4733E-03
            3908               1     51.8804E-03     46.8752E-03     21.4803E-03     26.7360E-03
            3909               1     42.9666E-03     57.5313E-03     23.0498E-03     23.8048E-03
            3910               1     76.3215E-03     96.7373E-03     24.4233E-03     26.1016E-03
            3911               1     120.118E-03     136.728E-03     31.5775E-03     33.2886E-03
            3912               1     166.933E-03     179.049E-03     35.5708E-03     38.1898E-03
            3913               1     221.227E-03     227.113E-03     53.4337E-03     56.6133E-03
            3914               1     309.043E-03     309.912E-03     67.8033E-03     62.9459E-03
            3915               1     86.3811E-03     96.5790E-03     22.9658E-03     17.9621E-03
            3916               1     58.3410E-03     65.5599E-03     29.7730E-03     34.4187E-03
            3917               1     60.8660E-03     71.9147E-03     31.6342E-03     35.2980E-03
            3918               1     93.5321E-03     102.438E-03     34.7688E-03     37.0080E-03
            3919               1     137.620E-03     149.218E-03     35.8992E-03     39.2368E-03
            3920               1     180.497E-03     193.913E-03     42.0497E-03     47.6637E-03
            3921               1     243.237E-03     255.714E-03     47.2161E-03     50.6141E-03
            3922               1     292.046E-03     292.150E-03     32.0238E-03     31.7798E-03
            3923               1     80.3695E-03     76.6279E-03     24.5806E-03     19.5469E-03
            3924               1     65.2809E-03     59.8941E-03     36.1435E-03     31.5818E-03
            3925               1     74.2208E-03     76.4198E-03     38.7679E-03     41.5334E-03
            3926               1     105.394E-03     106.741E-03     38.3737E-03     40.8435E-03
            3927               1     143.880E-03     144.047E-03     39.0763E-03     40.1980E-03
            3928               1     194.603E-03     202.427E-03     39.4831E-03     40.9513E-03
            3929               1     233.252E-03     243.869E-03     31.8582E-03     36.6465E-03
            3930               1     267.354E-03     267.239E-03     19.4475E-03     25.5852E-03
            3931               1     73.0139E-03     70.8434E-03     28.2240E-03     28.0666E-03
            3932               1     70.2204E-03     72.7142E-03     39.2859E-03     40.2695E-03
            3933               1     84.3708E-03     76.3243E-03     42.9062E-03     41.9696E-03
            3934               1     110.969E-03     100.686E-03     42.3468E-03     42.3067E-03
            3935               1     150.152E-03     141.249E-03     40.3930E-03     40.9277E-03
            3936               1     186.961E-03     175.054E-03     32.6911E-03     29.7140E-03
            3937               1     227.023E-03     225.572E-03     23.9193E-03     22.3788E-03
            3938               1     253.674E-03     264.018E-03     13.9198E-03     21.3219E-03
            3939               1     48.9985E-03     70.7393E-03     26.2805E-03     32.6861E-03
            3940               1     78.8568E-03     82.2227E-03     45.0135E-03     46.2355E-03
            3941               1     95.0639E-03     85.5097E-03     48.7099E-03     47.6848E-03
            3942               1     122.178E-03     106.379E-03     49.7189E-03     49.6677E-03
            3943               1     148.240E-03     126.063E-03     43.0485E-03     42.0474E-03
            3944               1     180.064E-03     154.852E-03     34.9226E-03     34.5310E-03
            3945               1     209.967E-03     175.152E-03     16.8932E-03     12.2134E-03
            3946               1     249.096E-03     209.905E-03    -10.6863E-03    -11.2842E-03
            5375               1     1.98144E-03     1.90029E-03    -734.011E-06    -737.678E-06
            5376               1     1.60435E-03     1.60484E-03    -836.023E-06    -858.399E-06
            5377               1     1.46903E-03     1.47393E-03    -819.659E-06    -827.981E-06
            5378               1     1.47454E-03     1.49143E-03    -849.145E-06    -859.593E-06
            5379               1     1.47454E-03     1.49143E-03    -849.145E-06    -859.593E-06
            5380               1     1.46903E-03     1.47393E-03    -819.659E-06    -827.981E-06
            5381               1     1.60435E-03     1.60484E-03    -836.023E-06    -858.399E-06
            5382               1     1.98144E-03     1.90029E-03    -734.011E-06    -737.678E-06
            5383               1     1.54863E-03     1.56093E-03    -591.551E-06    -583.099E-06
            5384               1     1.65537E-03     1.69092E-03    -858.629E-06    -878.453E-06
            5385               1     1.58649E-03     1.62771E-03    -899.069E-06    -925.024E-06
            5386               1     1.59711E-03     1.63334E-03    -919.378E-06    -940.347E-06
            5387               1     1.59711E-03     1.63334E-03    -919.378E-06    -940.347E-06
            5388               1     1.58649E-03     1.62771E-03    -899.069E-06    -925.024E-06
            5389               1     1.65537E-03     1.69092E-03    -858.629E-06    -878.453E-06
            5390               1     1.54863E-03     1.56093E-03    -591.551E-06    -583.099E-06
            5391               1     1.22733E-03     1.23003E-03    -523.044E-06    -529.491E-06
            5392               1     1.48766E-03     1.49399E-03    -793.972E-06    -792.567E-06
            5393               1     1.66306E-03     1.70377E-03    -942.568E-06    -964.104E-06
            5394               1     1.68557E-03     1.72259E-03    -972.319E-06    -993.731E-06
            5395               1     1.68557E-03     1.72259E-03    -972.319E-06    -993.731E-06
            5396               1     1.66306E-03     1.70377E-03    -942.568E-06    -964.104E-06
            5397               1     1.48766E-03     1.49399E-03    -793.972E-06    -792.567E-06
            5398               1     1.22733E-03     1.23003E-03    -523.044E-06    -529.491E-06
            5399               1     1.08635E-03     1.09415E-03    -544.015E-06    -547.998E-06
            5400               1     1.40271E-03     1.42729E-03    -778.015E-06    -791.209E-06
            5401               1     1.62712E-03     1.63858E-03    -929.599E-06    -934.877E-06
            5402               1     1.73335E-03     1.75934E-03    -999.592E-06    -1.01431E-03
            5403               1     1.73335E-03     1.75934E-03    -999.592E-06    -1.01431E-03
            5404               1     1.62712E-03     1.63858E-03    -929.599E-06    -934.877E-06
            5405               1     1.40271E-03     1.42729E-03    -778.015E-06    -791.209E-06
            5406               1     1.08635E-03     1.09415E-03    -544.015E-06    -547.998E-06
            5407               1     933.970E-06     964.032E-06    -517.777E-06    -536.915E-06
            5408               1     1.39100E-03     1.40377E-03    -793.803E-06    -800.056E-06
            5409               1     1.63362E-03     1.64501E-03    -938.157E-06    -944.259E-06
            5410               1     1.69159E-03     1.69714E-03    -975.320E-06    -978.429E-06
            5411               1     1.69159E-03     1.69714E-03    -975.320E-06    -978.429E-06
            5412               1     1.63362E-03     1.64501E-03    -938.157E-06    -944.259E-06
            5413               1     1.39100E-03     1.40377E-03    -793.803E-06    -800.056E-06
            5414               1     933.970E-06     964.032E-06    -517.777E-06    -536.915E-06
            5415               1     977.953E-06     1.01532E-03    -562.226E-06    -584.260E-06
            5416               1     1.44647E-03     1.45609E-03    -832.602E-06    -838.524E-06
            5417               1     1.57544E-03     1.57593E-03    -903.746E-06    -903.789E-06
            5418               1     1.62308E-03     1.61967E-03    -936.840E-06    -934.827E-06
            5419               1     1.62308E-03     1.61967E-03    -936.840E-06    -934.827E-06
            5420               1     1.57544E-03     1.57593E-03    -903.746E-06    -903.789E-06
            5421               1     1.44647E-03     1.45609E-03    -832.602E-06    -838.524E-06
            5422               1     977.953E-06     1.01532E-03    -562.226E-06    -584.260E-06
            5423               1     1.15698E-03     1.17003E-03    -613.081E-06    -624.962E-06
            5424               1     1.41265E-03     1.41868E-03    -813.986E-06    -817.945E-06
            5425               1     1.48399E-03     1.48003E-03    -856.034E-06    -853.773E-06
            5426               1     1.56885E-03     1.56601E-03    -905.385E-06    -903.828E-06
            5427               1     1.56885E-03     1.56601E-03    -905.385E-06    -903.828E-06
            5428               1     1.48399E-03     1.48003E-03    -856.034E-06    -853.773E-06
            5429               1     1.41265E-03     1.41868E-03    -813.986E-06    -817.945E-06
            5430               1     1.15698E-03     1.17003E-03    -613.081E-06    -624.962E-06
            6229               1     50.2854E-03     33.5001E-03    -5.46884E-03    -8.91568E-03
            6230               1     59.5198E-03     46.5457E-03    -4.35591E-03    -6.18062E-03
            6231               1     73.6643E-03     62.2102E-03    -628.730E-06    -157.650E-06
            6232               1     89.5814E-03     77.3172E-03     2.54908E-03     2.57272E-03
            6233               1     106.408E-03     92.6600E-03     7.96792E-03     9.35860E-03
            6234               1     126.194E-03     109.976E-03     12.5164E-03     13.2174E-03
            6235               1     149.218E-03     128.937E-03     22.7150E-03     26.5084E-03
            6236               1     192.952E-03     165.693E-03     31.7738E-03     33.9706E-03
            6237               1     39.2293E-03     42.2508E-03     249.201E-06     522.914E-06
            6238               1     61.7365E-03     55.1179E-03     1.63065E-03     93.0965E-06
            6239               1     78.0452E-03     69.2306E-03     3.48108E-03     3.09893E-03
            6240               1     94.4358E-03     85.9071E-03     6.15342E-03     7.88874E-03
            6241               1     113.334E-03     104.698E-03     9.63054E-03     10.7807E-03
            6242               1     130.589E-03     122.104E-03     13.3235E-03     16.6272E-03
            6243               1     157.618E-03     154.319E-03     17.4609E-03     20.2235E-03
            6244               1     172.514E-03     177.270E-03     14.1272E-03     10.4791E-03
            6245               1     44.4114E-03     39.1689E-03     3.79370E-03     4.46283E-03
            6246               1     62.1178E-03     61.4607E-03     4.69855E-03     6.33953E-03
            6247               1     81.0733E-03     76.6729E-03     6.09448E-03     6.95200E-03
            6248               1     99.5283E-03     94.4942E-03     8.52985E-03     9.37997E-03
            6249               1     115.973E-03     111.407E-03     9.75928E-03     11.7024E-03
            6250               1     136.508E-03     134.800E-03     12.3798E-03     13.5958E-03
            6251               1     152.171E-03     153.286E-03     10.5563E-03     7.69320E-03
            6252               1     169.552E-03     162.775E-03     6.79328E-03     4.45254E-03
            6253               1     44.8760E-03     44.6513E-03     5.31026E-03     6.00995E-03
            6254               1     65.2770E-03     61.8299E-03     6.46748E-03     7.96549E-03
            6255               1     83.6226E-03     82.3151E-03     7.98699E-03     9.76235E-03
            6256               1     101.291E-03     98.6003E-03     8.63636E-03     9.77773E-03
            6257               1     119.662E-03     117.933E-03     10.6579E-03     11.2760E-03
            6258               1     135.124E-03     134.593E-03     9.55198E-03     8.21196E-03
            6259               1     151.393E-03     147.777E-03     8.35740E-03     6.63896E-03
            6260               1     164.780E-03     163.461E-03     5.90262E-03     3.97716E-03
            6261               1     48.0210E-03     45.2280E-03     6.19095E-03     7.16562E-03
            6262               1     66.1678E-03     65.7275E-03     7.47524E-03     9.05516E-03
            6263               1     85.4615E-03     82.9104E-03     8.06096E-03     9.53803E-03
            6264               1     103.118E-03     102.024E-03     9.93616E-03     10.6938E-03
            6265               1     119.255E-03     118.224E-03     9.15565E-03     8.73604E-03
            6266               1     135.229E-03     132.946E-03     9.51011E-03     8.30211E-03
            6267               1     148.406E-03     147.526E-03     7.34941E-03     5.50006E-03
            6268               1     163.004E-03     158.310E-03     3.73941E-03     2.43222E-03
            6269               1     48.0575E-03     48.7022E-03     6.43818E-03     7.89740E-03
            6270               1     68.6530E-03     65.6155E-03     7.65846E-03     9.06567E-03
            6271               1     85.6053E-03     84.7064E-03     9.29846E-03     10.1695E-03
            6272               1     103.111E-03     101.536E-03     8.90571E-03     8.94065E-03
            6273               1     118.963E-03     117.665E-03     9.99860E-03     9.29225E-03
            6274               1     132.783E-03     132.298E-03     8.19792E-03     6.81354E-03
            6275               1     147.090E-03     143.912E-03     6.59239E-03     5.28164E-03
            6276               1     157.827E-03     156.455E-03     3.86863E-03     2.60683E-03
            6277               1     51.8130E-03     48.3908E-03     7.41232E-03     8.58654E-03
            6278               1     67.8262E-03     67.6369E-03     8.80044E-03     9.77407E-03
            6279               1     86.4239E-03     83.8801E-03     9.30763E-03     9.56908E-03
            6280               1     100.979E-03     100.212E-03     10.4395E-03     9.47148E-03
            6281               1     116.118E-03     116.445E-03     8.17617E-03     7.02767E-03
            6282               1     131.186E-03     130.138E-03     7.99848E-03     6.99271E-03
            6283               1     142.438E-03     142.406E-03     5.66572E-03     4.73117E-03
            6284               1     155.853E-03     151.537E-03     1.98178E-03     1.78787E-03
            6285               1     49.1526E-03     53.3421E-03     7.44821E-03     9.94226E-03
            6286               1     71.7629E-03     67.4548E-03     10.3909E-03     11.0978E-03
            6287               1     84.0805E-03     83.4210E-03     12.8361E-03     11.0026E-03
            6288               1     96.4805E-03     97.7063E-03     10.4795E-03     8.43502E-03
            6289               1     110.147E-03     111.877E-03     7.86950E-03     6.82219E-03
            6290               1     126.514E-03     128.726E-03     4.29432E-03     3.62432E-03
            6291               1     141.617E-03     139.990E-03     3.97378E-03     4.12967E-03
            6292               1     147.885E-03     149.635E-03     2.01243E-03     1.39349E-03
            6293               1     61.5080E-03     53.7212E-03     11.1201E-03     13.2611E-03
            6294               1     71.5230E-03     72.6481E-03     17.9743E-03     14.3967E-03
            6295               1     77.9244E-03     81.4326E-03     15.4085E-03     12.5170E-03
            6296               1     89.7004E-03     93.5525E-03     11.1267E-03     9.83088E-03
            6297               1     103.199E-03     107.005E-03     7.75859E-03     5.92401E-03
            6298               1     115.558E-03     119.414E-03     1.63730E-03     1.40654E-03
            6299               1     135.456E-03     139.908E-03    -4.49704E-03    -2.78155E-03
            6300               1     151.960E-03     146.061E-03    -3.59466E-03    -2.35517E-03
            6301               1     61.1731E-03     76.6556E-03     23.0555E-03     18.3052E-03
            6302               1     64.6046E-03     74.9506E-03     22.5284E-03     19.9015E-03
            6303               1     72.3150E-03     81.1019E-03     16.6168E-03     15.9774E-03
            6304               1     82.9607E-03     89.6816E-03     14.0954E-03     12.7864E-03
            6305               1     93.3597E-03     98.7482E-03     7.36149E-03     7.16670E-03
            6306               1     106.094E-03     110.294E-03     2.38080E-03     1.74381E-03
            6307               1     117.573E-03     121.945E-03    -9.61055E-03    -8.98147E-03
            6308               1     139.851E-03     148.371E-03    -22.0204E-03    -17.0262E-03
            6309               1     28.4107E-03     9.81108E-03     996.980E-06    -2.67444E-03
            6310               1     37.9730E-03     24.2398E-03     1.84144E-03    -42.6267E-06
            6311               1     49.1524E-03     38.3431E-03     3.81127E-03     4.13002E-03
            6312               1     61.7578E-03     50.4584E-03     6.05345E-03     5.89617E-03
            6313               1     74.8119E-03     62.8750E-03     9.44683E-03     10.6145E-03
            6314               1     90.1400E-03     76.0868E-03     12.3928E-03     12.9037E-03
            6315               1     108.503E-03     91.3751E-03     19.0441E-03     22.3844E-03
            6316               1     143.288E-03     119.295E-03     24.5198E-03     27.1755E-03
            6317               1     19.3733E-03     23.5127E-03     3.30049E-03     3.82623E-03
            6318               1     39.1444E-03     32.4210E-03     6.12942E-03     4.30820E-03
            6319               1     52.6589E-03     44.4654E-03     7.25580E-03     6.55019E-03
            6320               1     64.8487E-03     57.5159E-03     8.78470E-03     10.0994E-03
            6321               1     79.3089E-03     71.6639E-03     11.1210E-03     11.8581E-03
            6322               1     92.2394E-03     85.0625E-03     13.1626E-03     15.9720E-03
            6323               1     112.718E-03     109.677E-03     15.5760E-03     18.2205E-03
            6324               1     123.382E-03     128.259E-03     12.4130E-03     9.52035E-03
            6325               1     26.6286E-03     22.7185E-03     5.47882E-03     6.44171E-03
            6326               1     39.0985E-03     39.7847E-03     7.22868E-03     8.69341E-03
            6327               1     54.2308E-03     50.7087E-03     9.11188E-03     9.59547E-03
            6328               1     68.3945E-03     64.0708E-03     10.7911E-03     11.2487E-03
            6329               1     80.3048E-03     76.5291E-03     11.3806E-03     12.9152E-03
            6330               1     95.5803E-03     93.9945E-03     12.9260E-03     13.9022E-03
            6331               1     106.766E-03     107.794E-03     11.0406E-03     8.66009E-03
            6332               1     120.784E-03     114.691E-03     7.07249E-03     5.00833E-03
            6333               1     27.5855E-03     28.4136E-03     6.76915E-03     7.53743E-03
            6334               1     42.7732E-03     40.6827E-03     8.40931E-03     9.84014E-03
            6335               1     55.9566E-03     55.7380E-03     10.0555E-03     11.6061E-03
            6336               1     69.0940E-03     67.1373E-03     10.9475E-03     11.8051E-03
            6337               1     82.5868E-03     81.1574E-03     12.2549E-03     12.6464E-03
            6338               1     93.4367E-03     92.9706E-03     11.1415E-03     9.88471E-03
            6339               1     105.553E-03     102.371E-03     9.46178E-03     7.89421E-03
            6340               1     114.911E-03     114.427E-03     6.35769E-03     4.71032E-03
            6341               1     31.1199E-03     29.5015E-03     7.29725E-03     8.36564E-03
            6342               1     43.7615E-03     44.5385E-03     9.05065E-03     10.6188E-03
            6343               1     57.7792E-03     56.3386E-03     10.1234E-03     11.5310E-03
            6344               1     70.3566E-03     69.8831E-03     11.7766E-03     12.4459E-03
            6345               1     81.6663E-03     80.9130E-03     11.3084E-03     10.8730E-03
            6346               1     93.0711E-03     91.0395E-03     11.1476E-03     9.94177E-03
            6347               1     101.915E-03     101.488E-03     8.76811E-03     7.02559E-03
            6348               1     112.573E-03     108.754E-03     4.82603E-03     3.53938E-03
            6349               1     31.6902E-03     33.2482E-03     7.47046E-03     8.87370E-03
            6350               1     46.4985E-03     44.7800E-03     9.16001E-03     10.6212E-03
            6351               1     58.2049E-03     58.2869E-03     10.9468E-03     11.9329E-03
            6352               1     70.3669E-03     69.3640E-03     11.0855E-03     11.2504E-03
            6353               1     81.3376E-03     80.3078E-03     11.8661E-03     11.2171E-03
            6354               1     90.4021E-03     90.1242E-03     10.2712E-03     8.93029E-03
            6355               1     100.207E-03     97.5067E-03     8.25065E-03     6.87535E-03
            6356               1     106.858E-03     106.379E-03     4.92057E-03     3.67599E-03
            6357               1     35.7023E-03     33.5158E-03     8.13000E-03     9.26379E-03
            6358               1     46.4377E-03     47.2923E-03     9.95662E-03     11.0436E-03
            6359               1     59.3553E-03     57.8025E-03     10.9307E-03     11.4458E-03
            6360               1     69.1053E-03     68.8614E-03     12.1345E-03     11.4995E-03
            6361               1     78.7747E-03     79.2101E-03     10.5853E-03     9.71266E-03
            6362               1     88.8623E-03     87.8773E-03     10.1006E-03     9.04041E-03
            6363               1     95.4809E-03     95.8833E-03     7.65934E-03     6.62014E-03
            6364               1     104.392E-03     100.934E-03     3.70327E-03     3.25943E-03
            6365               1     33.9387E-03     38.7269E-03     7.89005E-03     10.1486E-03
            6366               1     50.4914E-03     47.5576E-03     11.0037E-03     11.8922E-03
            6367               1     58.5135E-03     58.3666E-03     13.5763E-03     12.1639E-03
            6368               1     65.7489E-03     67.2412E-03     12.0922E-03     10.4889E-03
            6369               1     74.3127E-03     76.5103E-03     10.1221E-03     9.53194E-03
            6370               1     84.4206E-03     86.5609E-03     7.50575E-03     7.12266E-03
            6371               1     94.2816E-03     92.6408E-03     6.63245E-03     6.31104E-03
            6372               1     96.4396E-03     98.8976E-03     3.86017E-03     3.02291E-03
            6373               1     45.3637E-03     39.1848E-03     10.3951E-03     12.3162E-03
            6374               1     51.8588E-03     52.7204E-03     16.9001E-03     13.6500E-03
            6375               1     54.3006E-03     57.7174E-03     15.2128E-03     12.6996E-03
            6376               1     60.9596E-03     65.3708E-03     12.1693E-03     11.3292E-03
            6377               1     68.9545E-03     73.2759E-03     9.94210E-03     8.55543E-03
            6378               1     76.0081E-03     80.8837E-03     5.37719E-03     5.69559E-03
            6379               1     87.5817E-03     92.2338E-03     812.341E-06     2.68989E-03
            6380               1     98.6232E-03     92.8835E-03     445.820E-06     962.034E-06
            6381               1     45.4974E-03     59.4667E-03     19.4501E-03     14.9430E-03
            6382               1     47.0804E-03     56.0615E-03     19.6430E-03     17.1358E-03
            6383               1     50.3357E-03     58.8906E-03     15.4667E-03     14.9906E-03
            6384               1     56.4664E-03     63.4779E-03     13.9948E-03     12.8840E-03
            6385               1     61.7850E-03     68.4987E-03     9.28633E-03     9.33194E-03
            6386               1     68.7597E-03     74.8323E-03     5.79425E-03     5.35845E-03
            6387               1     73.7187E-03     81.1604E-03    -2.62757E-03    -1.48516E-03
            6388               1     83.7584E-03     95.9420E-03    -11.9060E-03    -7.35209E-03
            6389               1     15.8559E-03     13.6863E-03     7.53162E-03     3.67163E-03
            6390               1     22.5083E-03     11.5942E-03     8.30287E-03     6.26002E-03
            6391               1     27.7989E-03     19.6867E-03     8.53010E-03     8.59664E-03
            6392               1     35.5425E-03     26.3792E-03     9.72733E-03     9.34262E-03
            6393               1     43.3074E-03     34.5130E-03     10.9750E-03     11.8723E-03
            6394               1     52.9862E-03     42.0448E-03     12.1251E-03     12.4679E-03
            6395               1     65.6280E-03     52.7909E-03     15.0148E-03     17.8909E-03
            6396               1     90.2209E-03     70.2728E-03     16.6650E-03     19.7781E-03
            6397               1     11.4158E-03     13.6466E-03     6.54938E-03     7.40288E-03
            6398               1     23.6552E-03     17.4366E-03     10.9014E-03     8.64168E-03
            6399               1     30.9856E-03     24.1242E-03     11.2414E-03     10.0389E-03
            6400               1     37.0079E-03     31.9421E-03     11.5625E-03     12.2730E-03
            6401               1     45.4980E-03     39.5627E-03     12.5213E-03     12.8394E-03
            6402               1     52.8466E-03     47.8864E-03     12.8168E-03     15.1161E-03
            6403               1     65.5056E-03     63.3128E-03     13.3008E-03     15.8917E-03
            6404               1     71.2746E-03     76.0782E-03     10.3661E-03     8.38134E-03
            6405               1     14.8791E-03     15.4661E-03     7.48066E-03     8.78892E-03
            6406               1     21.7179E-03     23.7975E-03     10.0792E-03     11.2354E-03
            6407               1     31.3207E-03     29.1107E-03     12.3958E-03     12.2599E-03
            6408               1     39.0952E-03     35.9295E-03     13.0628E-03     13.0711E-03
            6409               1     45.0519E-03     42.6232E-03     12.9815E-03     13.9901E-03
            6410               1     53.5703E-03     52.5822E-03     13.1519E-03     13.9978E-03
            6411               1     59.4218E-03     60.1236E-03     11.2247E-03     9.50762E-03
            6412               1     69.0307E-03     63.6722E-03     7.04136E-03     5.36362E-03
            6413               1     16.9711E-03     18.1218E-03     8.78534E-03     9.31218E-03
            6414               1     24.6489E-03     25.0722E-03     10.7249E-03     11.9249E-03
            6415               1     31.6354E-03     32.8224E-03     12.3078E-03     13.5592E-03
            6416               1     38.9029E-03     38.0227E-03     13.4380E-03     13.7896E-03
            6417               1     45.7982E-03     45.0923E-03     13.5966E-03     13.9068E-03
            6418               1     51.1359E-03     50.3879E-03     12.5542E-03     11.4284E-03
            6419               1     57.4982E-03     55.0632E-03     10.1717E-03     8.93803E-03
            6420               1     62.2137E-03     62.2541E-03     6.35502E-03     5.34223E-03
            6421               1     18.8079E-03     19.8049E-03     8.81108E-03     10.0211E-03
            6422               1     25.9517E-03     27.5995E-03     11.1105E-03     12.3941E-03
            6423               1     32.8763E-03     33.4614E-03     12.5220E-03     13.6236E-03
            6424               1     39.3314E-03     39.8292E-03     13.4681E-03     14.2564E-03
            6425               1     44.9488E-03     44.1275E-03     13.5524E-03     12.9732E-03
            6426               1     49.8289E-03     48.4205E-03     12.3610E-03     11.4180E-03
            6427               1     53.8740E-03     53.0977E-03     9.80312E-03     8.41261E-03
            6428               1     58.9253E-03     56.4815E-03     5.60758E-03     4.33845E-03
            6429               1     20.9800E-03     21.3621E-03     9.48773E-03     9.99143E-03
            6430               1     27.1175E-03     28.4391E-03     10.9665E-03     12.3686E-03
            6431               1     33.8459E-03     34.8862E-03     12.5602E-03     13.8919E-03
            6432               1     39.6636E-03     39.3156E-03     13.5842E-03     13.7031E-03
            6433               1     44.1773E-03     43.5984E-03     13.3509E-03     13.1691E-03
            6434               1     48.2524E-03     46.7589E-03     12.3827E-03     11.0156E-03
            6435               1     50.8290E-03     49.3377E-03     9.55626E-03     8.18183E-03
            6436               1     53.7611E-03     52.7645E-03     5.29248E-03     4.69047E-03
            6437               1     21.2425E-03     23.4114E-03     8.85691E-03     10.2651E-03
            6438               1     29.0722E-03     29.5251E-03     11.2203E-03     12.4272E-03
            6439               1     34.4625E-03     35.0258E-03     12.6628E-03     13.4632E-03
            6440               1     39.5179E-03     39.4051E-03     13.3635E-03     13.7731E-03
            6441               1     43.7323E-03     42.5366E-03     13.5482E-03     12.7648E-03
            6442               1     45.8155E-03     44.8687E-03     12.0497E-03     11.0367E-03
            6443               1     48.2263E-03     46.4223E-03     9.57956E-03     8.39596E-03
            6444               1     48.9952E-03     48.5354E-03     5.53168E-03     4.31871E-03
            6445               1     24.5868E-03     23.9743E-03     9.41471E-03     10.1965E-03
            6446               1     29.3836E-03     30.9779E-03     11.2243E-03     12.2650E-03
            6447               1     35.4213E-03     35.3226E-03     12.7803E-03     13.4704E-03
            6448               1     39.2594E-03     39.0175E-03     13.7553E-03     13.3113E-03
            6449               1     41.5089E-03     41.6614E-03     12.9468E-03     12.5680E-03
            6450               1     44.4122E-03     43.1047E-03     12.0237E-03     10.9679E-03
            6451               1     44.0380E-03     44.1084E-03     9.38452E-03     8.39831E-03
            6452               1     45.3206E-03     43.2372E-03     5.13364E-03     4.67788E-03
            6453               1     22.9492E-03     28.1465E-03     8.46047E-03     10.4756E-03
            6454               1     32.7300E-03     31.6714E-03     11.8405E-03     12.7496E-03
            6455               1     36.1809E-03     35.9437E-03     14.2621E-03     13.1777E-03
            6456               1     37.0685E-03     38.1913E-03     13.7547E-03     12.6871E-03
            6457               1     38.6992E-03     41.0175E-03     12.2738E-03     12.2134E-03
            6458               1     40.3934E-03     42.1157E-03     10.6877E-03     10.8287E-03
            6459               1     42.4738E-03     40.5052E-03     9.18153E-03     8.42849E-03
            6460               1     38.0527E-03     40.8540E-03     5.58199E-03     4.42690E-03
            6461               1     32.3976E-03     28.1904E-03     9.83889E-03     11.4469E-03
            6462               1     35.5964E-03     35.3918E-03     15.7513E-03     12.8000E-03
            6463               1     33.9307E-03     35.9969E-03     15.0394E-03     12.8969E-03
            6464               1     34.0837E-03     38.2808E-03     13.0384E-03     12.6766E-03
            6465               1     35.1389E-03     39.1981E-03     12.0639E-03     11.3025E-03
            6466               1     34.7742E-03     40.8014E-03     9.09524E-03     10.1614E-03
            6467               1     35.4621E-03     40.7225E-03     6.36023E-03     8.53303E-03
            6468               1     38.2467E-03     32.5107E-03     4.67934E-03     4.30333E-03
            6469               1     32.6160E-03     44.6129E-03     15.9290E-03     11.6850E-03
            6470               1     32.5165E-03     38.7555E-03     16.7089E-03     14.3158E-03
            6471               1     30.6528E-03     37.7126E-03     13.9483E-03     13.6224E-03
            6472               1     31.7880E-03     37.6878E-03     13.6102E-03     12.7377E-03
            6473               1     30.6237E-03     37.9421E-03     10.9143E-03     11.2566E-03
            6474               1     30.2045E-03     37.6654E-03     9.12680E-03     8.99522E-03
            6475               1     26.3375E-03     37.8692E-03     4.68597E-03     6.48447E-03
            6476               1     20.1089E-03     38.0474E-03    -749.845E-06     3.25021E-03
            6477               1     19.5520E-03     21.7143E-03     10.7901E-03     7.41727E-03
            6478               1     24.4218E-03     21.1916E-03     12.3204E-03     11.5838E-03
            6479               1     25.1842E-03     22.9869E-03     12.2370E-03     13.0647E-03
            6480               1     28.1319E-03     23.0325E-03     13.6089E-03     13.1796E-03
            6481               1     28.1832E-03     24.2116E-03     13.4701E-03     13.8953E-03
            6482               1     29.3580E-03     22.6689E-03     13.9019E-03     13.0746E-03
            6483               1     29.8456E-03     25.0175E-03     13.4093E-03     14.4118E-03
            6484               1     35.1259E-03     24.3397E-03     10.2394E-03     13.2980E-03
            6485               1     12.2431E-03     18.8953E-03     6.61847E-03     10.6605E-03
            6486               1     23.4308E-03     23.2593E-03     12.8734E-03     13.3054E-03
            6487               1     26.5093E-03     23.6540E-03     14.2876E-03     13.5971E-03
            6488               1     25.1442E-03     24.2857E-03     13.6382E-03     13.9085E-03
            6489               1     26.3891E-03     24.2517E-03     14.0166E-03     13.7230E-03
            6490               1     26.4472E-03     25.5541E-03     13.8392E-03     14.5822E-03
            6491               1     28.3234E-03     24.9056E-03     14.1572E-03     13.6903E-03
            6492               1     21.7181E-03     21.6981E-03     11.3006E-03     7.39755E-03
            6493               1     16.1672E-03     19.4288E-03     7.15341E-03     11.1669E-03
            6494               1     23.5716E-03     25.8916E-03     13.5686E-03     13.9888E-03
            6495               1     25.3383E-03     25.4061E-03     14.6110E-03     13.9410E-03
            6496               1     24.3120E-03     26.1286E-03     13.8580E-03     14.1284E-03
            6497               1     24.6266E-03     25.5580E-03     14.0054E-03     13.7022E-03
            6498               1     24.2974E-03     27.8402E-03     13.6726E-03     14.3076E-03
            6499               1     23.6289E-03     24.7147E-03     13.1137E-03     12.3777E-03
            6500               1     21.3126E-03     12.0866E-03     10.3998E-03     6.71285E-03
            6501               1     21.8238E-03     28.3101E-03     12.5188E-03     9.08726E-03
            6502               1     24.5216E-03     26.8075E-03     13.9472E-03     13.2149E-03
            6503               1     23.4219E-03     28.1774E-03     13.3555E-03     14.1921E-03
            6504               1     25.0002E-03     28.1930E-03     14.2956E-03     13.8780E-03
            6505               1     23.7679E-03     29.2625E-03     13.6730E-03     14.0792E-03
            6506               1     23.1022E-03     26.8742E-03     13.3222E-03     12.3836E-03
            6507               1     20.2711E-03     26.7503E-03     11.5372E-03     12.2927E-03
            6508               1     15.8162E-03     21.3061E-03     6.96801E-03     10.1489E-03


  Minimum                            933.970E-06     964.032E-06    -49.6925E-03    -48.9797E-03
      At Element                            5414            5414            2115            2115
          Int Pt                               1               1               1               1

  Maximum                            337.754E-03     319.326E-03     89.3041E-03     89.4694E-03
      At Element                            3842            3842            3842            3841
          Int Pt                               1               1               1               1

           Total                         67.6569         66.9236    -276.559E-03    -151.747E-03


********************************************************************************
Field Output Report, written Mon Feb 10 10:20:17 2020

Source 1
---------

   ODB: C:/Scratch/B737.odb
   Step: Jam_Straight
   Frame: Increment      1: Step Time =    1.000

Loc 1 : Integration point values at shell < ALUMINIUM > < 5 section points > from source 1 : SNEG, (fraction = -1.0)
Loc 2 : Integration point values at shell < ALUMINIUM > < 5 section points > from source 1 : SPOS, (fraction = 1.0)

Output sorted by column "Element Label".

Field Output reported at integration points for region: B737-1.Region_1

   Element Label             Int         S.Mises         S.Mises           S.S12           S.S12
                              Pt          @Loc 1          @Loc 2          @Loc 1          @Loc 2
-------------------------------------------------------------------------------------------------
               1               1     1.17386E-03     1.17080E-03    -677.523E-06    -675.461E-06
               2               1     1.21351E-03     1.17511E-03    -700.218E-06    -678.258E-06
               3               1     1.17670E-03     1.15851E-03    -678.945E-06    -667.276E-06
               4               1     1.07700E-03     1.07154E-03    -619.607E-06    -618.628E-06
               5               1     1.11986E-03     1.07802E-03    -643.207E-06    -620.766E-06
               6               1     1.07697E-03     1.07328E-03    -618.655E-06    -608.743E-06
               7               1     887.069E-06     879.090E-06    -509.092E-06    -504.089E-06
               8               1     927.186E-06     886.941E-06    -524.627E-06    -506.457E-06
               9               1     894.951E-06     926.940E-06    -509.298E-06    -500.279E-06
              10               1     639.135E-06     626.996E-06    -356.051E-06    -361.330E-06
              11               1     677.449E-06     628.815E-06    -364.741E-06    -351.946E-06
              12               1     660.599E-06     732.292E-06    -364.769E-06    -350.594E-06
              13               1     319.111E-06     319.387E-06    -143.494E-06    -139.079E-06
              14               1     488.253E-06     404.972E-06    -228.966E-06    -207.243E-06
              15               1     303.617E-06     534.787E-06    -125.538E-06    -122.648E-06
              16               1     318.676E-06     465.603E-06     150.487E-06     175.550E-06
              17               1     610.961E-06     532.767E-06     316.148E-06     284.996E-06
              18               1     715.053E-06     938.342E-06     218.975E-06     215.288E-06
              19               1     18.8328E-03     18.7071E-03     10.8611E-03     10.7271E-03
              20               1     19.0669E-03     18.8025E-03     10.9909E-03     10.8537E-03
              21               1     18.8608E-03     18.8500E-03     10.8877E-03     10.8828E-03
              22               1     18.9791E-03     18.8471E-03     10.9184E-03     10.8535E-03
              23               1     18.9914E-03     18.8371E-03     10.8962E-03     10.8039E-03
              24               1     18.8969E-03     19.2777E-03     10.7504E-03     10.8987E-03
              25               1     19.8096E-03     19.1893E-03     11.0114E-03     10.8859E-03
              26               1     19.0361E-03     19.0820E-03     10.7343E-03     10.4478E-03
              27               1     16.6837E-03     16.5917E-03     9.55852E-03     9.54460E-03
              28               1     16.7334E-03     16.4199E-03     9.53563E-03     9.34323E-03
              29               1     17.0741E-03     16.6341E-03     9.64929E-03     9.36786E-03
              30               1     17.1958E-03     16.8395E-03     9.55049E-03     9.38138E-03
              31               1     17.2296E-03     17.1741E-03     9.47358E-03     9.37300E-03
              32               1     17.6531E-03     17.6289E-03     9.42390E-03     9.49194E-03
              33               1     17.7952E-03     17.8785E-03     9.34479E-03     9.42678E-03
              34               1     17.8474E-03     19.2931E-03     9.14492E-03     9.59557E-03
              35               1     20.2745E-03     18.6633E-03     9.62575E-03     9.59444E-03
              36               1     18.2063E-03     19.1753E-03     9.21854E-03     8.77961E-03
              37               1     15.4842E-03     15.7990E-03     8.17375E-03     8.34732E-03
              38               1     16.0349E-03     15.1881E-03     7.95860E-03     7.69965E-03
              39               1     16.5759E-03     16.1206E-03     8.32739E-03     7.75711E-03
              40               1     16.8945E-03     16.4468E-03     8.11990E-03     7.82712E-03
              41               1     17.4615E-03     16.9300E-03     8.07869E-03     7.80222E-03
              42               1     17.5512E-03     17.9938E-03     7.93513E-03     7.96527E-03
              43               1     18.6531E-03     18.7444E-03     7.86949E-03     8.14500E-03
              44               1     19.0400E-03     19.2507E-03     7.82101E-03     8.06928E-03
              45               1     19.1423E-03     21.8364E-03     7.52667E-03     8.26634E-03
              46               1     23.4398E-03     20.1406E-03     8.23482E-03     8.28554E-03
              47               1     19.3681E-03     21.9124E-03     7.68095E-03     7.12756E-03
              48               1     16.4165E-03     17.5657E-03     6.79922E-03     7.14149E-03
              49               1     18.6574E-03     16.6031E-03     6.39917E-03     6.13624E-03
              50               1     18.4742E-03     18.8433E-03     6.99767E-03     6.20705E-03
              51               1     19.2540E-03     18.7944E-03     6.68622E-03     6.33200E-03
              52               1     20.2273E-03     19.5763E-03     6.63777E-03     6.28930E-03
              53               1     20.2634E-03     21.0849E-03     6.46399E-03     6.50550E-03
              54               1     22.0223E-03     21.9014E-03     6.35823E-03     6.73957E-03
              55               1     22.5079E-03     22.6230E-03     6.29894E-03     6.64740E-03
              56               1     22.5832E-03     26.3078E-03     5.93931E-03     6.87057E-03
              57               1     28.6179E-03     23.3721E-03     6.77818E-03     6.91286E-03
              58               1     22.3867E-03     26.6768E-03     6.13617E-03     5.52680E-03
              59               1     19.7540E-03     21.9783E-03     5.52186E-03     6.06770E-03
              60               1     24.5687E-03     20.6414E-03     4.97641E-03     4.95210E-03
              61               1     22.5653E-03     24.7620E-03     5.55698E-03     5.00407E-03
              62               1     24.8821E-03     23.8032E-03     5.12229E-03     5.26570E-03
              63               1     25.6067E-03     24.6095E-03     4.95525E-03     4.83842E-03
              64               1     25.0608E-03     29.2246E-03     4.48600E-03     5.13457E-03
              65               1     32.4423E-03     25.2526E-03     5.17055E-03     5.19889E-03
              66               1     24.5932E-03     30.1246E-03     4.50549E-03     3.86678E-03
              67               1     19.8083E-03     19.6211E-03     11.4309E-03     11.3140E-03
              68               1     20.3314E-03     19.9131E-03     11.7252E-03     11.4909E-03
              69               1     19.8766E-03     20.0248E-03     11.4747E-03     11.5564E-03
              70               1     19.9793E-03     19.9290E-03     11.5329E-03     11.5043E-03
              71               1     20.0155E-03     19.8927E-03     11.5553E-03     11.4849E-03
              72               1     19.8772E-03     20.2585E-03     11.4758E-03     11.6946E-03
              73               1     20.5877E-03     20.1730E-03     11.8743E-03     11.6422E-03
              74               1     19.8353E-03     19.2902E-03     11.4470E-03     11.1196E-03
              75               1     17.3573E-03     17.6165E-03     10.0065E-03     10.1420E-03
              76               1     17.5649E-03     17.2422E-03     10.1082E-03     9.94139E-03
              77               1     17.4689E-03     17.4048E-03     10.0712E-03     10.0257E-03
              78               1     17.4657E-03     17.5328E-03     10.0653E-03     10.1041E-03
              79               1     17.4185E-03     17.6953E-03     10.0407E-03     10.2035E-03
              80               1     17.7391E-03     17.8514E-03     10.2270E-03     10.2924E-03
              81               1     17.9502E-03     17.5711E-03     10.3496E-03     10.1351E-03
              82               1     17.6505E-03     18.1625E-03     10.1838E-03     10.4663E-03
              83               1     18.6970E-03     18.1172E-03     10.7343E-03     10.4267E-03
              84               1     17.6059E-03     16.6551E-03     10.1345E-03     9.52655E-03
              85               1     14.8676E-03     15.6007E-03     8.58095E-03     8.99549E-03
              86               1     14.6470E-03     14.6193E-03     8.44641E-03     8.43886E-03
              87               1     15.0212E-03     14.7176E-03     8.66065E-03     8.48488E-03
              88               1     14.7869E-03     15.2113E-03     8.50704E-03     8.75602E-03
              89               1     15.0708E-03     15.3426E-03     8.64320E-03     8.80004E-03
              90               1     15.2956E-03     15.4823E-03     8.75476E-03     8.86711E-03
              91               1     15.7074E-03     15.7109E-03     8.98046E-03     8.96010E-03
              92               1     16.0275E-03     15.3975E-03     9.12664E-03     8.76959E-03
              93               1     15.5997E-03     16.3381E-03     8.89712E-03     9.22919E-03
              94               1     17.1908E-03     16.3401E-03     9.54917E-03     9.20460E-03
              95               1     15.6914E-03     14.7085E-03     8.84755E-03     8.00220E-03
              96               1     12.5959E-03     13.7525E-03     7.21659E-03     7.89338E-03
              97               1     12.1303E-03     12.3086E-03     6.90715E-03     6.99462E-03
              98               1     12.7975E-03     12.4137E-03     7.28955E-03     7.03061E-03
              99               1     12.6409E-03     13.2341E-03     7.08162E-03     7.44611E-03
             100               1     13.0706E-03     13.4698E-03     7.25279E-03     7.43511E-03
             101               1     13.5835E-03     13.8257E-03     7.43647E-03     7.53707E-03
             102               1     14.2072E-03     14.2747E-03     7.69733E-03     7.64701E-03
             103               1     14.8394E-03     14.1071E-03     7.88515E-03     7.46499E-03
             104               1     14.3360E-03     15.6621E-03     7.60145E-03     8.00879E-03
             105               1     17.1135E-03     15.5218E-03     8.34512E-03     7.99126E-03
             106               1     14.7569E-03     14.6688E-03     7.58238E-03     6.58977E-03
             107               1     11.7651E-03     13.1335E-03     6.12674E-03     6.91914E-03
             108               1     12.0332E-03     11.4142E-03     5.76271E-03     5.68102E-03
             109               1     12.3214E-03     11.9942E-03     6.20799E-03     5.78001E-03
             110               1     12.9715E-03     12.8661E-03     6.15441E-03     6.31910E-03
             111               1     13.7147E-03     13.1657E-03     6.32442E-03     6.19110E-03
             112               1     13.6859E-03     15.6447E-03     6.19452E-03     6.82320E-03
             113               1     17.8324E-03     15.2881E-03     6.92351E-03     6.85041E-03
             114               1     14.5919E-03     16.1517E-03     6.26906E-03     5.36070E-03
             115               1     19.6179E-03     19.2991E-03     11.3250E-03     11.1398E-03
             116               1     19.5899E-03     19.5412E-03     11.3094E-03     11.2742E-03
             117               1     19.5483E-03     19.7503E-03     11.2588E-03     11.3803E-03
             118               1     19.7221E-03     19.9791E-03     11.3453E-03     11.4927E-03
             119               1     19.9194E-03     19.9227E-03     11.4228E-03     11.4445E-03
             120               1     19.8425E-03     19.9644E-03     11.3717E-03     11.4032E-03
             121               1     20.8003E-03     19.9342E-03     11.7460E-03     11.3937E-03
             122               1     20.1070E-03     19.4553E-03     11.4860E-03     10.9623E-03
             123               1     17.6164E-03     18.1865E-03     9.91836E-03     10.1932E-03
             124               1     17.3784E-03     17.9760E-03     9.56344E-03     10.0515E-03
             125               1     17.8953E-03     18.5096E-03     9.88374E-03     10.2207E-03
             126               1     18.0431E-03     18.6971E-03     9.94288E-03     10.3632E-03
             127               1     18.5542E-03     18.5879E-03     10.1791E-03     10.2819E-03
             128               1     18.8293E-03     18.5906E-03     10.3291E-03     10.2240E-03
             129               1     19.1517E-03     18.4451E-03     10.4228E-03     10.0912E-03
             130               1     18.9840E-03     18.9003E-03     10.3369E-03     10.0997E-03
             131               1     20.9888E-03     18.9144E-03     11.0211E-03     10.2473E-03
             132               1     19.0277E-03     18.2724E-03     10.3958E-03     9.49306E-03
             133               1     16.5602E-03     18.5164E-03     8.64286E-03     9.43329E-03
             134               1     16.9589E-03     17.2274E-03     8.00458E-03     8.91160E-03
             135               1     16.9759E-03     18.3402E-03     8.54421E-03     9.21406E-03
             136               1     17.2237E-03     18.1503E-03     8.68788E-03     9.43637E-03
             137               1     17.4853E-03     17.6275E-03     8.89832E-03     9.18652E-03
             138               1     17.7683E-03     17.5724E-03     9.14380E-03     9.10826E-03
             139               1     18.0381E-03     17.3544E-03     9.28252E-03     8.99296E-03
             140               1     18.5217E-03     17.0897E-03     9.47896E-03     8.72951E-03
             141               1     18.1704E-03     17.9281E-03     9.33721E-03     8.87299E-03
             142               1     20.8214E-03     17.8406E-03     10.2955E-03     9.12367E-03
             143               1     17.8844E-03     16.9616E-03     9.35248E-03     8.09669E-03
             144               1     15.4669E-03     18.5009E-03     7.48662E-03     8.66068E-03
             145               1     16.3482E-03     16.2536E-03     6.54388E-03     7.82941E-03
             146               1     15.9163E-03     17.5917E-03     7.39294E-03     8.21881E-03
             147               1     15.9219E-03     17.0249E-03     7.49033E-03     8.48145E-03
             148               1     16.0576E-03     16.1753E-03     7.77868E-03     8.15729E-03
             149               1     16.2184E-03     15.9229E-03     8.06474E-03     8.03429E-03
             150               1     16.4359E-03     15.5439E-03     8.28167E-03     7.90536E-03
             151               1     16.9315E-03     15.0856E-03     8.54077E-03     7.55088E-03
             152               1     16.5330E-03     15.9042E-03     8.41641E-03     7.77987E-03
             153               1     19.1236E-03     15.9353E-03     9.56052E-03     8.11740E-03
             154               1     15.9825E-03     14.4558E-03     8.38846E-03     6.86726E-03
             155               1     13.1944E-03     16.2031E-03     6.50045E-03     7.71693E-03
             156               1     13.6178E-03     13.6625E-03     5.46136E-03     6.65820E-03
             157               1     13.9716E-03     14.7361E-03     6.65911E-03     7.02243E-03
             158               1     13.9525E-03     14.4487E-03     6.82373E-03     7.36854E-03
             159               1     14.6909E-03     13.4709E-03     7.42216E-03     6.94547E-03
             160               1     14.3436E-03     13.9375E-03     7.51023E-03     7.25937E-03
             161               1     16.4035E-03     14.0445E-03     8.84061E-03     7.59155E-03
             162               1     13.8658E-03     11.5666E-03     7.67973E-03     6.21806E-03
             163               1     17.2022E-03     17.6084E-03     9.92188E-03     10.1146E-03
             164               1     17.9201E-03     18.0675E-03     10.3400E-03     10.4217E-03
             165               1     17.7635E-03     18.3194E-03     10.2386E-03     10.5599E-03
             166               1     18.4014E-03     17.9423E-03     10.4850E-03     10.2804E-03
             167               1     18.4769E-03     17.9723E-03     10.4563E-03     10.1057E-03
             168               1     18.3207E-03     19.1649E-03     10.1334E-03     10.4152E-03
             169               1     20.1890E-03     18.3735E-03     10.4982E-03     10.0953E-03
             170               1     18.5279E-03     19.2556E-03     9.95616E-03     9.48988E-03
             171               1     17.1457E-03     19.2428E-03     9.22088E-03     10.1464E-03
             172               1     18.4519E-03     18.7895E-03     9.33960E-03     10.0793E-03
             173               1     18.2009E-03     19.2724E-03     9.63729E-03     10.0420E-03
             174               1     18.7477E-03     18.5052E-03     9.68334E-03     9.67171E-03
             175               1     18.7213E-03     18.8651E-03     9.49052E-03     9.35146E-03
             176               1     19.6806E-03     19.2741E-03     9.52390E-03     9.31624E-03
             177               1     19.9423E-03     19.3366E-03     9.35287E-03     8.85193E-03
             178               1     19.9941E-03     22.0597E-03     8.97336E-03     9.21848E-03
             179               1     24.6210E-03     19.8868E-03     9.62252E-03     8.78948E-03
             180               1     20.7297E-03     23.2416E-03     9.01091E-03     7.86449E-03
             181               1     19.8645E-03     24.9313E-03     8.68732E-03     10.2811E-03
             182               1     23.3595E-03     21.7841E-03     8.54381E-03     9.93354E-03
             183               1     20.8706E-03     22.8591E-03     9.30854E-03     9.59253E-03
             184               1     20.8558E-03     21.3185E-03     8.96134E-03     9.36736E-03
             185               1     21.3119E-03     20.9519E-03     9.00854E-03     8.77771E-03
             186               1     20.6471E-03     21.6718E-03     8.63218E-03     8.53796E-03
             187               1     22.1153E-03     21.6277E-03     8.58853E-03     8.34615E-03
             188               1     22.1914E-03     21.7988E-03     8.39084E-03     7.77507E-03
             189               1     22.1622E-03     25.1798E-03     7.87126E-03     8.05417E-03
             190               1     28.8839E-03     21.9751E-03     8.86108E-03     7.53640E-03
             191               1     23.0312E-03     27.2109E-03     8.11492E-03     6.35241E-03
             192               1     22.4785E-03     30.0110E-03     8.14927E-03     10.3110E-03
             193               1     27.7455E-03     24.1896E-03     7.83025E-03     9.63898E-03
             194               1     22.9864E-03     25.9145E-03     8.86811E-03     9.13497E-03
             195               1     22.5941E-03     23.2591E-03     8.38467E-03     8.97415E-03
             196               1     22.7606E-03     22.4446E-03     8.36938E-03     8.18931E-03
             197               1     21.5158E-03     23.0022E-03     7.97755E-03     7.90042E-03
             198               1     22.8536E-03     22.4534E-03     7.82281E-03     7.61871E-03
             199               1     22.7418E-03     22.3409E-03     7.63805E-03     6.88322E-03
             200               1     22.4890E-03     25.8486E-03     7.00285E-03     7.10212E-03
             201               1     30.0735E-03     22.2580E-03     8.24693E-03     6.50647E-03
             202               1     23.4240E-03     28.2880E-03     7.40055E-03     5.16928E-03
             203               1     21.9115E-03     30.2568E-03     7.27545E-03     9.80738E-03
             204               1     27.7159E-03     23.0275E-03     6.99355E-03     8.79947E-03
             205               1     21.9757E-03     25.3006E-03     7.92350E-03     8.22450E-03
             206               1     22.3861E-03     22.0356E-03     7.71130E-03     8.17599E-03
             207               1     22.0035E-03     20.6498E-03     7.53376E-03     6.85150E-03
             208               1     20.8247E-03     23.6410E-03     7.10789E-03     7.03955E-03
             209               1     27.4586E-03     19.8370E-03     8.27208E-03     6.34263E-03
             210               1     21.4882E-03     24.9412E-03     7.50867E-03     4.97854E-03
             211               1     15.8485E-03     15.7996E-03     9.10547E-03     8.89893E-03
             212               1     15.7574E-03     15.6814E-03     8.90648E-03     9.02725E-03
             213               1     14.6448E-03     14.1925E-03     8.39972E-03     8.18473E-03
             214               1     14.4478E-03     14.2773E-03     8.12616E-03     7.96265E-03
             215               1     15.0764E-03     14.7369E-03     8.05938E-03     7.87655E-03
             216               1     15.5120E-03     16.8785E-03     7.84286E-03     7.70804E-03
             217               1     19.9851E-03     17.3587E-03     8.01925E-03     8.24281E-03
             218               1     16.6583E-03     19.6387E-03     7.72626E-03     7.60303E-03
             219               1     19.6939E-03     20.0675E-03     10.5185E-03     10.2076E-03
             220               1     19.4287E-03     18.8153E-03     9.87510E-03     9.74297E-03
             221               1     17.6730E-03     18.2816E-03     8.91959E-03     8.69023E-03
             222               1     18.2248E-03     17.9997E-03     8.32353E-03     8.07330E-03
             223               1     18.3514E-03     19.1789E-03     7.94125E-03     7.71842E-03
             224               1     19.4862E-03     20.2570E-03     7.29866E-03     7.39092E-03
             225               1     21.1954E-03     21.0436E-03     7.28918E-03     7.20728E-03
             226               1     20.6092E-03     25.3041E-03     6.64832E-03     6.75059E-03
             227               1     29.0537E-03     23.2674E-03     6.46482E-03     6.84215E-03
             228               1     21.6294E-03     28.3287E-03     5.69186E-03     5.69522E-03
             229               1     26.7448E-03     30.1345E-03     12.0444E-03     11.6374E-03
             230               1     28.7781E-03     25.5024E-03     10.9084E-03     10.4855E-03
             231               1     23.5635E-03     26.5619E-03     9.58632E-03     9.36683E-03
             232               1     24.4655E-03     24.5458E-03     8.74724E-03     8.22540E-03
             233               1     24.6174E-03     25.7103E-03     8.00363E-03     7.92775E-03
             234               1     24.4218E-03     26.4427E-03     7.47107E-03     7.28161E-03
             235               1     26.0029E-03     27.5291E-03     6.69810E-03     6.96116E-03
             236               1     27.3776E-03     27.6341E-03     6.46572E-03     6.58032E-03
             237               1     25.8406E-03     32.7697E-03     5.54294E-03     5.81594E-03
             238               1     36.7324E-03     28.9916E-03     4.94963E-03     5.50889E-03
             239               1     26.8595E-03     36.1299E-03     3.76773E-03     3.86118E-03
             240               1     32.8002E-03     38.9176E-03     13.1453E-03     12.6750E-03
             241               1     37.0182E-03     31.4559E-03     11.6123E-03     11.0229E-03
             242               1     28.5300E-03     33.5478E-03     10.0707E-03     9.78453E-03
             243               1     29.5892E-03     29.8280E-03     8.92409E-03     8.36277E-03
             244               1     29.2815E-03     30.8355E-03     8.08944E-03     7.95496E-03
             245               1     28.2602E-03     31.0754E-03     7.30189E-03     7.18103E-03
             246               1     29.6517E-03     31.6534E-03     6.38232E-03     6.69263E-03
             247               1     30.5599E-03     31.1536E-03     5.92097E-03     6.19097E-03
             248               1     28.2760E-03     36.3235E-03     4.75136E-03     5.15419E-03
             249               1     40.1480E-03     31.7315E-03     3.84817E-03     4.51935E-03
             250               1     29.4076E-03     39.9425E-03     2.35286E-03     2.49419E-03
             251               1     34.3935E-03     41.8831E-03     12.9132E-03     12.5194E-03
             252               1     39.7718E-03     33.1840E-03     11.0144E-03     10.6825E-03
             253               1     29.4319E-03     35.7814E-03     9.57256E-03     9.26970E-03
             254               1     30.9664E-03     31.4325E-03     7.73827E-03     7.76630E-03
             255               1     30.8298E-03     31.1528E-03     7.12682E-03     7.04842E-03
             256               1     26.8555E-03     34.8664E-03     5.29111E-03     5.69824E-03
             257               1     37.9430E-03     30.1214E-03     4.29580E-03     4.70498E-03
             258               1     27.7044E-03     37.7847E-03     2.48066E-03     2.56489E-03
             259               1     12.5344E-03     13.9485E-03     6.12958E-03     6.12571E-03
             260               1     10.8852E-03     9.92490E-03     5.64476E-03     5.36970E-03
             261               1     9.26316E-03     8.61685E-03     5.30911E-03     4.94407E-03
             262               1     8.95283E-03     9.37857E-03     4.77645E-03     4.80566E-03
             263               1     10.8081E-03     10.3095E-03     4.42494E-03     4.70951E-03
             264               1     12.5510E-03     14.2033E-03     4.80880E-03     4.32818E-03
             265               1     17.9639E-03     14.6257E-03     3.75956E-03     4.00959E-03
             266               1     17.7624E-03     22.0054E-03     3.42998E-03     4.12421E-03
             267               1     17.4896E-03     16.1721E-03     9.74632E-03     8.93908E-03
             268               1     16.9166E-03     15.4104E-03     8.60883E-03     7.69300E-03
             269               1     15.9056E-03     15.3497E-03     6.70876E-03     6.42309E-03
             270               1     16.9562E-03     16.7353E-03     6.06269E-03     5.88649E-03
             271               1     18.4325E-03     18.1558E-03     5.38748E-03     5.46304E-03
             272               1     20.0019E-03     20.4380E-03     4.93348E-03     4.90302E-03
             273               1     22.5238E-03     21.4887E-03     4.14100E-03     4.76558E-03
             274               1     23.1374E-03     26.2981E-03     4.41865E-03     3.87259E-03
             275               1     30.0086E-03     24.5188E-03     1.98251E-03     2.79933E-03
             276               1     27.2678E-03     32.9009E-03     670.391E-06     2.08950E-03
             277               1     28.1707E-03     27.5222E-03     13.2816E-03     11.6879E-03
             278               1     29.2210E-03     25.2556E-03     11.5020E-03     10.0251E-03
             279               1     25.5323E-03     26.3125E-03     8.09802E-03     7.91609E-03
             280               1     27.2850E-03     26.1723E-03     7.46369E-03     6.99234E-03
             281               1     27.6737E-03     27.5739E-03     6.27342E-03     6.28000E-03
             282               1     29.0545E-03     28.8267E-03     5.59422E-03     5.75023E-03
             283               1     30.0938E-03     30.5235E-03     4.95147E-03     4.95098E-03
             284               1     32.4018E-03     30.9694E-03     3.77426E-03     4.65286E-03
             285               1     31.7924E-03     35.8018E-03     3.89479E-03     3.39042E-03
             286               1     39.4520E-03     32.3913E-03     249.761E-06     1.60461E-03
             287               1     34.9740E-03     41.3471E-03    -1.85296E-03     201.486E-06
             288               1     37.7265E-03     38.2488E-03     16.0454E-03     13.8617E-03
             289               1     39.7821E-03     33.7388E-03     13.7468E-03     11.8339E-03
             290               1     33.4953E-03     35.4126E-03     9.18666E-03     9.12171E-03
             291               1     35.4498E-03     33.7487E-03     8.53752E-03     7.83658E-03
             292               1     34.9072E-03     34.9029E-03     6.95829E-03     6.97997E-03
             293               1     35.7814E-03     35.4519E-03     6.06549E-03     6.21527E-03
             294               1     36.1849E-03     36.6039E-03     5.20697E-03     5.24430E-03
             295               1     37.9837E-03     36.3775E-03     3.70799E-03     4.74083E-03
             296               1     36.5579E-03     40.8560E-03     3.60375E-03     3.22860E-03
             297               1     44.1343E-03     36.3972E-03    -839.295E-06     936.667E-06
             298               1     38.7134E-03     45.2354E-03    -3.49381E-03    -1.01846E-03
             299               1     42.3496E-03     43.8239E-03     16.7733E-03     14.3801E-03
             300               1     44.7511E-03     37.7817E-03     13.9901E-03     11.9696E-03
             301               1     37.2565E-03     39.9783E-03     8.86577E-03     9.08066E-03
             302               1     39.0129E-03     37.6666E-03     8.04881E-03     7.24539E-03
             303               1     38.5171E-03     37.5185E-03     5.45020E-03     6.42619E-03
             304               1     36.7978E-03     40.5784E-03     4.84221E-03     4.51877E-03
             305               1     42.4930E-03     35.4363E-03     52.3870E-06     2.01631E-03
             306               1     36.8368E-03     42.9663E-03    -3.05749E-03    -469.500E-06
             307               1     59.3490E-03     62.2330E-03    -32.5888E-03    -31.5462E-03
             308               1     67.0636E-03     62.5012E-03    -36.5712E-03    -35.5828E-03
             309               1     67.1784E-03     69.3028E-03    -37.5067E-03    -36.0175E-03
             310               1     70.6079E-03     65.6388E-03    -38.3737E-03    -37.1347E-03
             311               1     65.4287E-03     65.7993E-03    -37.4839E-03    -37.5158E-03
             312               1     66.1758E-03     64.1779E-03    -38.1565E-03    -37.0099E-03
             313               1     65.3048E-03     64.4977E-03    -37.6648E-03    -36.5673E-03
             314               1     69.6975E-03     68.7103E-03    -40.0584E-03    -38.9172E-03
             315               1     76.5075E-03     74.3083E-03    -43.8649E-03    -42.8781E-03
             316               1     77.0652E-03     76.4393E-03    -44.1317E-03    -42.9962E-03
             317               1     80.2664E-03     76.6767E-03    -45.6423E-03    -44.0362E-03
             318               1     77.6766E-03     77.8630E-03    -44.7500E-03    -44.7998E-03
             319               1     78.9257E-03     76.0357E-03    -45.5658E-03    -43.8728E-03
             320               1     76.6455E-03     75.4447E-03    -44.2485E-03    -43.4036E-03
             321               1     75.8688E-03     73.6548E-03    -43.7498E-03    -42.4911E-03
             322               1     81.9562E-03     80.1344E-03    -47.2599E-03    -46.1535E-03
             323               1     82.3186E-03     79.0498E-03    -47.4918E-03    -45.5757E-03
             324               1     83.9633E-03     81.5239E-03    -48.4581E-03    -47.0573E-03
             325               1     79.9914E-03     81.1355E-03    -46.1675E-03    -46.8163E-03
             326               1     83.3148E-03     81.0590E-03    -48.0580E-03    -46.7785E-03
             327               1     82.2934E-03     79.6418E-03    -47.4906E-03    -45.9437E-03
             328               1     73.7537E-03     73.0160E-03    -41.7114E-03    -40.6499E-03
             329               1     78.6918E-03     76.4539E-03    -44.7186E-03    -43.7579E-03
             330               1     76.6062E-03     73.5918E-03    -44.0672E-03    -41.7006E-03
             331               1     78.8073E-03     75.5151E-03    -45.2784E-03    -43.5952E-03
             332               1     77.7525E-03     80.7774E-03    -44.8892E-03    -46.6358E-03
             333               1     77.9681E-03     75.6689E-03    -44.8611E-03    -43.6799E-03
             334               1     76.1809E-03     74.4976E-03    -43.8525E-03    -42.4151E-03
             335               1     70.9751E-03     72.2006E-03    -39.7483E-03    -38.5352E-03
             336               1     78.1958E-03     73.3764E-03    -42.1382E-03    -40.8888E-03
             337               1     61.6947E-03     65.6347E-03    -34.5148E-03    -33.5473E-03
             338               1     69.8560E-03     63.5896E-03    -37.4945E-03    -35.7930E-03
             339               1     58.3126E-03     57.9786E-03    -33.6444E-03    -33.4124E-03
             340               1     68.6414E-03     63.6438E-03    -38.1230E-03    -36.3853E-03
             341               1     62.8317E-03     64.8354E-03    -35.8167E-03    -34.9719E-03
             342               1     52.3049E-03     62.8958E-03    -19.9012E-03    -19.1868E-03
             343               1     39.3797E-03     35.1219E-03    -20.2860E-03    -20.0561E-03
             344               1     52.9456E-03     67.7673E-03    -14.6525E-03    -15.7099E-03
             345               1     42.8675E-03     35.3212E-03    -13.4438E-03    -13.9541E-03
             346               1     30.3976E-03     23.0676E-03    -17.3579E-03    -12.9610E-03
             347               1     36.2505E-03     31.3839E-03    -14.8847E-03    -14.9437E-03
             348               1     48.2377E-03     60.1267E-03    -17.3103E-03    -17.6328E-03
             349               1     57.6886E-03     58.4567E-03    -33.2389E-03    -32.5991E-03
             350               1     58.8017E-03     57.1190E-03    -33.8573E-03    -32.9205E-03
             351               1     58.8256E-03     57.0142E-03    -33.5693E-03    -32.7716E-03
             352               1     59.8483E-03     61.7559E-03    -32.9907E-03    -32.9875E-03
             353               1     69.1798E-03     60.8088E-03    -34.3392E-03    -32.8820E-03
             354               1     62.5364E-03     68.2513E-03    -32.7048E-03    -30.8487E-03
             355               1     49.1776E-03     49.2433E-03    -24.1465E-03    -24.1613E-03
             356               1     71.4816E-03     71.6222E-03    -41.0754E-03    -40.4524E-03
             357               1     74.2526E-03     71.0973E-03    -42.4671E-03    -40.9693E-03
             358               1     72.4175E-03     70.6786E-03    -41.8035E-03    -40.7681E-03
             359               1     71.6917E-03     72.0433E-03    -41.3437E-03    -41.4547E-03
             360               1     75.7292E-03     72.4860E-03    -42.8453E-03    -41.6150E-03
             361               1     71.6795E-03     70.7020E-03    -40.9497E-03    -39.2483E-03
             362               1     54.4826E-03     54.4825E-03    -31.2158E-03    -31.2307E-03
             363               1     79.0038E-03     77.4473E-03    -45.2443E-03    -44.0701E-03
             364               1     79.8868E-03     77.9655E-03    -45.5882E-03    -44.6463E-03
             365               1     78.7070E-03     78.8504E-03    -45.0337E-03    -45.0283E-03
             366               1     78.3432E-03     79.2502E-03    -44.9863E-03    -45.5070E-03
             367               1     82.7969E-03     78.9336E-03    -47.5080E-03    -45.3837E-03
             368               1     79.8055E-03     74.9600E-03    -45.9772E-03    -43.1898E-03
             369               1     63.7877E-03     63.9033E-03    -36.2236E-03    -36.2384E-03
             370               1     73.2311E-03     74.2364E-03    -41.9102E-03    -42.5158E-03
             371               1     78.9171E-03     78.0125E-03    -44.5956E-03    -44.3168E-03
             372               1     78.3296E-03     78.2481E-03    -44.4386E-03    -44.2085E-03
             373               1     78.6212E-03     79.9543E-03    -43.9837E-03    -44.4100E-03
             374               1     84.8093E-03     76.6003E-03    -46.0176E-03    -42.9390E-03
             375               1     77.5475E-03     76.1916E-03    -42.8014E-03    -39.5932E-03
             376               1     72.6776E-03     72.9841E-03    -38.8284E-03    -38.8433E-03
             377               1     70.8180E-03     67.4922E-03    -40.6789E-03    -38.8378E-03
             378               1     67.8838E-03     68.7185E-03    -39.0441E-03    -39.0773E-03
             379               1     67.3354E-03     62.9344E-03    -37.0064E-03    -35.2608E-03
             380               1     66.2728E-03     70.2916E-03    -35.2856E-03    -33.7225E-03
             381               1     83.4702E-03     72.4064E-03    -35.6758E-03    -35.8023E-03
             382               1     70.0314E-03     80.4980E-03    -33.8172E-03    -32.2728E-03
             383               1     78.4520E-03     78.9580E-03    -38.8529E-03    -38.8678E-03
             384               1     49.8710E-03     52.0384E-03    -27.3486E-03    -26.2514E-03
             385               1     41.4761E-03     38.3479E-03    -23.8810E-03    -21.3857E-03
             386               1     43.1641E-03     36.9993E-03    -19.9341E-03    -19.2877E-03
             387               1     48.5501E-03     56.0173E-03    -19.8907E-03    -17.4608E-03
             388               1     74.6930E-03     58.6463E-03    -14.7459E-03    -15.3106E-03
             389               1     76.0116E-03     95.4147E-03    -13.3199E-03    -16.0597E-03
             390               1     79.6790E-03     80.3589E-03    -36.2954E-03    -36.3102E-03
             391               1     1.24858E-03     1.22942E-03     720.807E-06     709.421E-06
             392               1     1.26830E-03     1.24319E-03     732.233E-06     717.531E-06
             393               1     1.25786E-03     1.25093E-03     725.441E-06     721.615E-06
             394               1     1.26168E-03     1.24251E-03     726.900E-06     715.819E-06
             395               1     1.24371E-03     1.25393E-03     716.218E-06     720.600E-06
             396               1     1.28653E-03     1.25004E-03     735.897E-06     718.112E-06
             397               1     1.23894E-03     1.20209E-03     711.803E-06     686.239E-06
             398               1     1.13468E-03     1.11702E-03     654.740E-06     643.428E-06
             399               1     1.15206E-03     1.13299E-03     664.916E-06     651.409E-06
             400               1     1.15911E-03     1.14714E-03     663.121E-06     658.353E-06
             401               1     1.16271E-03     1.13355E-03     657.480E-06     640.172E-06
             402               1     1.17967E-03     1.22014E-03     657.891E-06     667.965E-06
             403               1     1.26840E-03     1.19241E-03     675.828E-06     663.103E-06
             404               1     1.18636E-03     1.20872E-03     652.081E-06     627.435E-06
             405               1     915.632E-06     904.806E-06     527.995E-06     515.814E-06
             406               1     932.091E-06     921.940E-06     537.876E-06     525.500E-06
             407               1     936.796E-06     940.544E-06     519.243E-06     528.113E-06
             408               1     998.324E-06     1.00798E-03     534.145E-06     543.385E-06
             409               1     1.02414E-03     1.08245E-03     526.528E-06     531.082E-06
             410               1     1.28880E-03     1.07283E-03     569.354E-06     535.191E-06
             411               1     1.10270E-03     1.23295E-03     542.909E-06     507.299E-06
             412               1     575.773E-06     606.416E-06     331.617E-06     333.194E-06
             413               1     577.150E-06     640.301E-06     329.888E-06     349.913E-06
             414               1     700.883E-06     685.715E-06     362.898E-06     373.746E-06
             415               1     758.699E-06     727.892E-06     349.511E-06     332.374E-06
             416               1     858.938E-06     1.00835E-03     351.943E-06     364.092E-06
             417               1     1.24807E-03     866.272E-06     353.386E-06     327.526E-06
             418               1     997.554E-06     1.33600E-03     335.234E-06     284.437E-06
             419               1     255.267E-06     360.992E-06     146.615E-06     146.760E-06
             420               1     306.122E-06     266.551E-06     155.407E-06     147.058E-06
             421               1     341.934E-06     260.481E-06     87.8200E-06     82.0156E-06
             422               1     575.676E-06     532.314E-06     115.324E-06     73.2964E-06
             423               1     706.863E-06     1.00990E-03     61.2882E-06     48.7698E-06
             424               1     1.45516E-03     970.316E-06     81.2825E-06     88.1214E-06
             425               1     989.906E-06     1.50250E-03     38.2761E-06     44.2519E-06
             426               1     480.162E-06     687.142E-06    -134.667E-06    -140.514E-06
             427               1     425.994E-06     410.666E-06    -207.327E-06    -225.525E-06
             428               1     475.249E-06     494.066E-06    -218.115E-06    -260.827E-06
             429               1     782.620E-06     711.563E-06    -285.434E-06    -255.591E-06
             430               1     936.693E-06     1.16844E-03    -244.374E-06    -302.170E-06
             431               1     1.66124E-03     1.28984E-03    -372.776E-06    -344.903E-06
             432               1     1.65212E-03     1.99802E-03    -374.087E-06    -312.834E-06
             433               1     37.8191E-03     43.3178E-03     13.8498E-03     12.7766E-03
             434               1     46.6344E-03     39.2143E-03     14.8862E-03     14.8331E-03
             435               1     38.2017E-03     43.2710E-03     13.6629E-03     14.8492E-03
             436               1     38.0979E-03     37.9889E-03     14.1784E-03     14.4116E-03
             437               1     37.5704E-03     37.2695E-03     14.4419E-03     14.6062E-03
             438               1     35.9022E-03     35.9258E-03     14.5836E-03     14.2520E-03
             439               1     35.5295E-03     34.3600E-03     14.8262E-03     14.3536E-03
             440               1     34.1671E-03     34.5595E-03     15.1782E-03     14.1870E-03
             441               1     34.6431E-03     31.5635E-03     14.5863E-03     14.1444E-03
             442               1     31.4491E-03     32.7007E-03     14.9398E-03     15.1527E-03
             443               1     30.8910E-03     35.0201E-03     12.5931E-03     11.8116E-03
             444               1     37.1810E-03     31.7026E-03     13.3341E-03     13.2413E-03
             445               1     30.7217E-03     34.3197E-03     12.4864E-03     13.2562E-03
             446               1     30.3535E-03     30.3128E-03     12.8254E-03     12.9449E-03
             447               1     29.7964E-03     29.5068E-03     12.9940E-03     13.0846E-03
             448               1     28.3025E-03     28.3603E-03     13.0820E-03     12.8581E-03
             449               1     27.8811E-03     27.0881E-03     13.2328E-03     12.9148E-03
             450               1     26.8643E-03     26.6358E-03     13.4363E-03     12.8395E-03
             451               1     26.4073E-03     25.1312E-03     13.1408E-03     12.8096E-03
             452               1     25.1354E-03     25.1566E-03     13.2816E-03     13.3052E-03
             453               1     24.3550E-03     26.9792E-03     11.3338E-03     10.7927E-03
             454               1     28.1409E-03     24.6499E-03     11.8451E-03     11.6900E-03
             455               1     23.7934E-03     25.9711E-03     11.2721E-03     11.7061E-03
             456               1     23.3345E-03     23.3654E-03     11.4723E-03     11.5284E-03
             457               1     22.7336E-03     22.6917E-03     11.5058E-03     11.5969E-03
             458               1     21.6608E-03     21.8367E-03     11.4987E-03     11.5016E-03
             459               1     21.3011E-03     20.9648E-03     11.6217E-03     11.4292E-03
             460               1     20.8462E-03     20.4758E-03     11.6328E-03     11.4184E-03
             461               1     20.5534E-03     20.0972E-03     11.6985E-03     11.4588E-03
             462               1     20.2858E-03     19.8711E-03     11.6884E-03     11.3972E-03
             463               1     20.1585E-03     19.8644E-03     11.6215E-03     11.4553E-03
             464               1     17.1094E-03     17.6308E-03     9.72858E-03     9.53940E-03
             465               1     17.7589E-03     17.0552E-03     9.95284E-03     9.81996E-03
             466               1     17.0136E-03     17.1433E-03     9.80894E-03     9.80717E-03
             467               1     16.9176E-03     17.0173E-03     9.76682E-03     9.70059E-03
             468               1     29.0187E-03     27.8085E-03     15.7726E-03     14.1817E-03
             469               1     32.5634E-03     30.3447E-03     17.1296E-03     16.4435E-03
             470               1     28.7946E-03     30.6016E-03     15.8400E-03     16.5161E-03
             471               1     29.5959E-03     28.5880E-03     16.2288E-03     15.6969E-03
             472               1     28.8074E-03     28.9296E-03     15.9697E-03     15.9580E-03
             473               1     27.7748E-03     28.2882E-03     15.4219E-03     15.7247E-03
             474               1     27.5987E-03     27.8032E-03     15.4110E-03     15.5470E-03
             475               1     27.7046E-03     27.2782E-03     15.5469E-03     15.1858E-03
             476               1     27.5399E-03     26.8546E-03     15.2662E-03     15.0217E-03
             477               1     27.3131E-03     28.7133E-03     15.3902E-03     16.0839E-03
             478               1     26.3859E-03     25.7817E-03     14.3902E-03     13.2713E-03
             479               1     29.2166E-03     27.2676E-03     15.4063E-03     14.8492E-03
             480               1     26.1898E-03     27.5715E-03     14.4553E-03     14.9284E-03
             481               1     26.7087E-03     25.9864E-03     14.7380E-03     14.3594E-03
             482               1     26.0466E-03     26.1917E-03     14.5416E-03     14.5780E-03
             483               1     25.2998E-03     25.7034E-03     14.2006E-03     14.4359E-03
             484               1     25.1678E-03     25.2182E-03     14.2260E-03     14.2609E-03
             485               1     25.1449E-03     24.8924E-03     14.2758E-03     14.0991E-03
             486               1     25.0827E-03     24.5468E-03     14.2390E-03     13.9593E-03
             487               1     24.7695E-03     25.3365E-03     14.1467E-03     14.4686E-03
             488               1     23.3800E-03     23.0325E-03     12.9586E-03     12.2241E-03
             489               1     25.3176E-03     23.8514E-03     13.6477E-03     13.2095E-03
             490               1     23.3204E-03     24.0792E-03     13.0630E-03     13.2872E-03
             491               1     23.5197E-03     23.0477E-03     13.2085E-03     12.9328E-03
             492               1     23.1816E-03     23.2438E-03     13.1406E-03     13.1614E-03
             493               1     22.6850E-03     22.9683E-03     12.9529E-03     13.1011E-03
             494               1     22.5790E-03     22.7872E-03     12.9606E-03     13.0747E-03
             495               1     22.4154E-03     22.4217E-03     12.9097E-03     12.9162E-03
             496               1     22.4342E-03     22.3392E-03     12.9418E-03     12.8910E-03
             497               1     22.6769E-03     22.2254E-03     13.0900E-03     12.8311E-03
             498               1     22.1870E-03     22.1087E-03     12.8094E-03     12.7445E-03
             499               1     20.1744E-03     20.0966E-03     11.6220E-03     11.4323E-03
             500               1     20.7852E-03     20.4488E-03     11.9197E-03     11.8046E-03
             501               1     20.5492E-03     20.4529E-03     11.8416E-03     11.8013E-03
             502               1     20.2369E-03     20.2081E-03     11.6810E-03     11.5842E-03
             503               1     30.1394E-03     27.8030E-03     16.4002E-03     14.0335E-03
             504               1     34.7548E-03     29.7234E-03     18.1747E-03     15.9714E-03
             505               1     30.2582E-03     29.3980E-03     16.3324E-03     15.5649E-03
             506               1     30.4470E-03     28.3344E-03     16.4836E-03     15.3975E-03
             507               1     29.5894E-03     28.7053E-03     16.1354E-03     15.7756E-03
             508               1     28.7449E-03     28.8120E-03     15.6410E-03     15.9188E-03
             509               1     27.5598E-03     29.3236E-03     15.0389E-03     16.2058E-03
             510               1     27.3692E-03     28.7245E-03     14.9570E-03     15.7925E-03
             511               1     25.3712E-03     27.5617E-03     13.7728E-03     15.3437E-03
             512               1     26.7709E-03     28.9997E-03     15.0416E-03     16.2311E-03
             513               1     26.5662E-03     24.2218E-03     15.0709E-03     13.4271E-03
             514               1     29.1326E-03     26.2087E-03     16.2612E-03     14.8070E-03
             515               1     26.5337E-03     25.8431E-03     15.0207E-03     14.5614E-03
             516               1     26.7623E-03     25.4848E-03     15.1540E-03     14.4773E-03
             517               1     26.3566E-03     25.8618E-03     14.9734E-03     14.7333E-03
             518               1     25.8591E-03     25.9814E-03     14.6584E-03     14.8169E-03
             519               1     25.0966E-03     26.3144E-03     14.2490E-03     14.9899E-03
             520               1     24.9588E-03     25.8334E-03     14.1630E-03     14.6957E-03
             521               1     23.7488E-03     25.2128E-03     13.5025E-03     14.4118E-03
             522               1     24.8261E-03     25.9055E-03     14.2317E-03     14.8239E-03
             523               1     23.6098E-03     22.0053E-03     13.5973E-03     12.6310E-03
             524               1     24.9253E-03     23.4354E-03     14.3053E-03     13.4832E-03
             525               1     23.5127E-03     23.2672E-03     13.5445E-03     13.3943E-03
             526               1     23.9467E-03     23.1802E-03     13.7883E-03     13.3577E-03
             527               1     23.7610E-03     23.4175E-03     13.6927E-03     13.4994E-03
             528               1     23.7529E-03     23.5685E-03     13.6799E-03     13.5831E-03
             529               1     23.4349E-03     23.5908E-03     13.4864E-03     13.5933E-03
             530               1     23.2189E-03     23.8135E-03     13.3610E-03     13.7110E-03
             531               1     22.8474E-03     23.5269E-03     13.1376E-03     13.5377E-03
             532               1     22.7434E-03     23.1657E-03     13.0963E-03     13.3517E-03
             533               1     23.0054E-03     23.1981E-03     13.2623E-03     13.3618E-03
             534               1     22.3653E-03     22.0057E-03     12.9120E-03     12.6970E-03
             535               1     22.6545E-03     22.4143E-03     13.0781E-03     12.9279E-03
             536               1     22.4443E-03     22.3270E-03     12.9366E-03     12.8878E-03
             537               1     22.3904E-03     22.2503E-03     12.9127E-03     12.7922E-03
             538               1     37.8666E-03     45.5637E-03     13.5845E-03     10.2519E-03
             539               1     47.7000E-03     35.2790E-03     15.0073E-03     12.4799E-03
             540               1     35.7780E-03     40.5940E-03     13.2779E-03     13.5013E-03
             541               1     35.2149E-03     33.9999E-03     14.1183E-03     12.8829E-03
             542               1     34.6631E-03     33.9507E-03     14.6216E-03     14.1438E-03
             543               1     32.5260E-03     33.1542E-03     14.5303E-03     14.3075E-03
             544               1     32.6751E-03     32.5240E-03     15.0405E-03     15.3128E-03
             545               1     31.9275E-03     34.8656E-03     15.1636E-03     15.9844E-03
             546               1     34.0751E-03     33.3494E-03     14.0137E-03     16.2692E-03
             547               1     29.7967E-03     37.2370E-03     14.1772E-03     17.0238E-03
             548               1     29.2696E-03     32.5664E-03     13.0665E-03     10.9317E-03
             549               1     34.9007E-03     27.6645E-03     14.1489E-03     12.5324E-03
             550               1     28.0431E-03     30.7303E-03     12.9811E-03     13.2490E-03
             551               1     27.9899E-03     26.8815E-03     13.6051E-03     12.6931E-03
             552               1     27.7946E-03     27.0659E-03     13.9124E-03     13.5105E-03
             553               1     26.5778E-03     26.6648E-03     13.8622E-03     13.6188E-03
             554               1     26.7693E-03     26.5593E-03     14.1745E-03     14.2134E-03
             555               1     26.2737E-03     27.9013E-03     14.1584E-03     14.8138E-03
             556               1     26.4887E-03     27.4259E-03     13.5207E-03     14.8970E-03
             557               1     24.7828E-03     28.6859E-03     13.4401E-03     15.1703E-03
             558               1     23.6292E-03     24.2441E-03     12.3362E-03     11.2888E-03
             559               1     26.2286E-03     23.3158E-03     13.0809E-03     12.3774E-03
             560               1     23.3695E-03     24.6713E-03     12.4558E-03     12.7572E-03
             561               1     23.4663E-03     22.8560E-03     12.7998E-03     12.3132E-03
             562               1     23.6527E-03     22.8240E-03     13.0572E-03     12.5948E-03
             563               1     22.8454E-03     22.6561E-03     12.8795E-03     12.6722E-03
             564               1     23.2980E-03     22.5744E-03     13.2570E-03     12.8234E-03
             565               1     22.8902E-03     22.9316E-03     13.0883E-03     13.1374E-03
             566               1     22.8803E-03     23.6157E-03     13.1478E-03     13.5536E-03
             567               1     22.5295E-03     23.6654E-03     12.8859E-03     13.5954E-03
             568               1     21.9129E-03     23.1463E-03     12.6116E-03     13.2903E-03
             569               1     22.5807E-03     21.9910E-03     13.0035E-03     12.6260E-03
             570               1     23.3123E-03     23.0261E-03     13.4110E-03     13.2771E-03
             571               1     22.9245E-03     23.1782E-03     13.1906E-03     13.3314E-03
             572               1     22.3826E-03     22.2565E-03     12.9032E-03     12.8290E-03
             573               1     45.2584E-03     62.7106E-03     4.96562E-03     5.06251E-03
             574               1     62.8377E-03     48.5148E-03     7.18857E-03     8.06207E-03
             575               1     42.1270E-03     54.4654E-03     8.10681E-03     8.49133E-03
             576               1     44.1207E-03     44.3216E-03     9.98962E-03     9.90213E-03
             577               1     40.5321E-03     43.2894E-03     10.3314E-03     10.5954E-03
             578               1     38.0964E-03     41.0654E-03     12.1591E-03     11.5532E-03
             579               1     38.1314E-03     37.9940E-03     13.1608E-03     12.5558E-03
             580               1     35.9873E-03     40.0265E-03     14.9447E-03     14.2350E-03
             581               1     43.0285E-03     39.0208E-03     17.2209E-03     16.6687E-03
             582               1     40.9959E-03     45.4793E-03     19.1275E-03     18.4572E-03
             583               1     31.7908E-03     42.8169E-03     7.46646E-03     7.40379E-03
             584               1     43.4350E-03     34.4407E-03     8.87702E-03     9.44412E-03
             585               1     30.1287E-03     37.7042E-03     9.22376E-03     9.45746E-03
             586               1     31.1876E-03     31.1952E-03     10.4054E-03     10.2640E-03
             587               1     28.7688E-03     30.1611E-03     10.5435E-03     10.6685E-03
             588               1     27.2979E-03     28.6809E-03     11.6726E-03     11.2668E-03
             589               1     27.4372E-03     27.0715E-03     12.4028E-03     11.9301E-03
             590               1     26.9112E-03     27.9056E-03     13.5103E-03     13.0384E-03
             591               1     30.1959E-03     28.9337E-03     15.1338E-03     14.8224E-03
             592               1     30.7102E-03     31.7268E-03     16.3004E-03     15.7823E-03
             593               1     23.5370E-03     28.5323E-03     9.56526E-03     9.37417E-03
             594               1     29.7090E-03     25.2332E-03     10.2267E-03     10.5210E-03
             595               1     22.7695E-03     26.2990E-03     10.0477E-03     10.1958E-03
             596               1     23.0478E-03     22.6736E-03     10.5809E-03     10.3504E-03
             597               1     21.3819E-03     22.0686E-03     10.4106E-03     10.5984E-03
             598               1     20.8000E-03     20.7639E-03     10.9395E-03     10.5803E-03
             599               1     20.3673E-03     20.5825E-03     11.0839E-03     11.0935E-03
             600               1     20.9869E-03     20.2346E-03     11.7703E-03     11.2243E-03
             601               1     21.4249E-03     21.0792E-03     12.1604E-03     12.0078E-03
             602               1     23.0406E-03     22.7584E-03     13.2382E-03     13.0622E-03
             603               1     23.8702E-03     23.2355E-03     13.7473E-03     13.3534E-03
             604               1     21.1889E-03     21.0508E-03     12.1141E-03     11.7436E-03
             605               1     21.8117E-03     21.4277E-03     12.2453E-03     12.3116E-03
             606               1     21.3498E-03     21.7021E-03     12.3232E-03     12.4205E-03
             607               1     21.9014E-03     21.2260E-03     12.6206E-03     12.2534E-03
             608               1     62.7660E-03     74.4489E-03    -6.02549E-03    -2.42200E-03
             609               1     69.5844E-03     56.2835E-03    -2.60965E-03    -127.887E-06
             610               1     53.7133E-03     61.1064E-03     4.02026E-03     3.03693E-03
             611               1     53.6137E-03     50.8179E-03     3.94520E-03     5.40039E-03
             612               1     48.4193E-03     49.2148E-03     6.17808E-03     6.07067E-03
             613               1     45.3748E-03     44.7885E-03     7.60698E-03     7.69028E-03
             614               1     42.5939E-03     41.4072E-03     9.64759E-03     8.83531E-03
             615               1     39.2229E-03     39.5664E-03     11.1830E-03     10.6078E-03
             616               1     42.7245E-03     36.9666E-03     16.7645E-03     14.0423E-03
             617               1     41.4294E-03     39.3938E-03     20.0784E-03     17.4258E-03
             618               1     42.5897E-03     51.4602E-03    -520.974E-06     1.80265E-03
             619               1     47.0346E-03     38.2752E-03     1.63987E-03     3.13598E-03
             620               1     36.1340E-03     41.1663E-03     5.76041E-03     4.99560E-03
             621               1     35.3352E-03     33.6960E-03     5.53378E-03     6.52370E-03
             622               1     31.4854E-03     32.1259E-03     6.93229E-03     6.88210E-03
             623               1     29.1603E-03     28.6744E-03     7.82895E-03     7.88817E-03
             624               1     27.0278E-03     26.5501E-03     9.09601E-03     8.68401E-03
             625               1     25.4843E-03     24.6003E-03     10.2807E-03     9.71084E-03
             626               1     27.5639E-03     24.6696E-03     13.6729E-03     11.9246E-03
             627               1     28.4302E-03     26.1318E-03     15.6602E-03     14.1342E-03
             628               1     27.8036E-03     33.7828E-03     4.32357E-03     5.51839E-03
             629               1     30.1491E-03     25.3185E-03     5.41539E-03     5.99968E-03
             630               1     23.5514E-03     26.3237E-03     7.32716E-03     6.68837E-03
             631               1     22.2953E-03     21.7761E-03     6.87994E-03     7.48489E-03
             632               1     19.7367E-03     20.1094E-03     7.44992E-03     7.43411E-03
             633               1     18.1843E-03     18.3518E-03     7.78151E-03     7.98431E-03
             634               1     16.9153E-03     16.6439E-03     8.16749E-03     8.11485E-03
             635               1     16.3638E-03     16.4295E-03     8.77749E-03     8.72921E-03
             636               1     17.0187E-03     15.8371E-03     9.60408E-03     8.99920E-03
             637               1     19.2295E-03     17.9697E-03     11.0660E-03     10.1915E-03
             638               1     20.7982E-03     20.2647E-03     11.7700E-03     11.2224E-03
             639               1     16.6930E-03     18.8622E-03     8.41166E-03     8.84368E-03
             640               1     16.5887E-03     15.4049E-03     8.74096E-03     8.60576E-03
             641               1     16.3709E-03     15.6912E-03     9.44672E-03     8.95056E-03
             642               1     16.5974E-03     17.3096E-03     9.46974E-03     9.62397E-03
             643               1     553.902E-06     567.947E-06     291.005E-06     296.911E-06
             644               1     620.558E-06     645.570E-06     342.920E-06     344.653E-06
             645               1     605.463E-06     631.429E-06     334.088E-06     338.718E-06
             646               1     599.711E-06     632.244E-06     333.199E-06     337.212E-06
             647               1     595.646E-06     633.932E-06     333.726E-06     337.182E-06
             648               1     591.527E-06     637.696E-06     333.325E-06     337.620E-06
             649               1     588.496E-06     638.956E-06     333.702E-06     337.217E-06
             650               1     585.255E-06     642.339E-06     333.415E-06     337.504E-06
             651               1     582.889E-06     644.320E-06     333.549E-06     337.368E-06
             652               1     581.101E-06     647.187E-06     333.612E-06     337.318E-06
             653               1     578.998E-06     649.892E-06     333.318E-06     337.607E-06
             654               1     579.110E-06     652.284E-06     333.932E-06     337.052E-06
             655               1     576.872E-06     655.704E-06     332.974E-06     338.000E-06
             656               1     579.537E-06     657.797E-06     334.509E-06     336.711E-06
             657               1     576.815E-06     661.910E-06     332.552E-06     338.676E-06
             658               1     582.955E-06     664.483E-06     335.621E-06     336.630E-06
             659               1     579.834E-06     668.564E-06     332.376E-06     339.487E-06
             660               1     591.489E-06     676.012E-06     338.307E-06     339.000E-06
             661               1     601.998E-06     684.620E-06     343.289E-06     350.027E-06
             662               1     698.276E-06     684.451E-06     403.148E-06     395.121E-06
             663               1     591.420E-06     616.820E-06     341.336E-06     355.960E-06
             664               1     580.762E-06     590.358E-06     334.939E-06     340.402E-06
             665               1     582.923E-06     596.394E-06     335.830E-06     343.482E-06
             666               1     583.317E-06     598.591E-06     335.560E-06     344.230E-06
             667               1     586.130E-06     597.744E-06     336.564E-06     343.089E-06
             668               1     585.551E-06     600.948E-06     335.471E-06     344.173E-06
             669               1     588.491E-06     601.088E-06     336.299E-06     343.350E-06
             670               1     589.518E-06     603.561E-06     335.885E-06     343.763E-06
             671               1     591.295E-06     605.712E-06     335.782E-06     343.867E-06
             672               1     594.706E-06     606.644E-06     336.517E-06     343.132E-06
             673               1     594.520E-06     611.607E-06     334.999E-06     344.650E-06
             674               1     601.296E-06     609.986E-06     337.493E-06     342.156E-06
             675               1     597.933E-06     618.985E-06     333.807E-06     345.838E-06
             676               1     609.285E-06     613.513E-06     338.849E-06     340.797E-06
             677               1     602.136E-06     627.520E-06     332.534E-06     347.233E-06
             678               1     617.083E-06     618.583E-06     339.664E-06     339.925E-06
             679               1     607.306E-06     630.452E-06     331.129E-06     344.613E-06
             680               1     623.665E-06     638.666E-06     339.683E-06     347.677E-06
             681               1     567.124E-06     578.968E-06     296.425E-06     306.834E-06
             682               1     642.571E-06     645.465E-06     350.535E-06     352.831E-06
             683               1     636.543E-06     624.499E-06     342.382E-06     346.530E-06
             684               1     637.816E-06     618.764E-06     341.316E-06     345.301E-06
             685               1     639.996E-06     614.397E-06     341.843E-06     345.343E-06
             686               1     642.410E-06     611.852E-06     341.471E-06     345.771E-06
             687               1     644.903E-06     607.719E-06     341.863E-06     345.371E-06
             688               1     647.304E-06     605.647E-06     341.570E-06     345.661E-06
             689               1     649.672E-06     603.011E-06     341.709E-06     345.526E-06
             690               1     652.628E-06     601.167E-06     341.756E-06     345.466E-06
             691               1     654.391E-06     600.229E-06     341.472E-06     345.754E-06
             692               1     658.431E-06     598.357E-06     342.019E-06     345.149E-06
             693               1     658.897E-06     599.541E-06     341.084E-06     346.093E-06
             694               1     664.843E-06     597.017E-06     342.348E-06     344.583E-06
             695               1     663.024E-06     601.103E-06     340.450E-06     346.502E-06
             696               1     671.596E-06     596.837E-06     342.385E-06     343.523E-06
             697               1     666.096E-06     603.867E-06     339.137E-06     346.178E-06
             698               1     675.726E-06     596.633E-06     340.636E-06     341.398E-06
             699               1     686.862E-06     618.908E-06     345.514E-06     350.544E-06
             700               1     5.24455E-03     7.88235E-03     420.003E-06    -281.173E-06
             701               1     2.80281E-03     2.73404E-03     1.58486E-03     1.34051E-03
             702               1     3.84761E-03     3.21983E-03     1.76863E-03     1.74667E-03
             703               1     5.70115E-03     4.96448E-03     2.54100E-03     2.49276E-03
             704               1     6.41945E-03     5.74842E-03     2.77028E-03     2.78427E-03
             705               1     7.35000E-03     6.65089E-03     3.24335E-03     3.23337E-03
             706               1     7.64747E-03     6.97208E-03     3.36314E-03     3.37200E-03
             707               1     8.12195E-03     7.43709E-03     3.62027E-03     3.61929E-03
             708               1     8.26219E-03     7.58140E-03     3.68244E-03     3.68639E-03
             709               1     8.52502E-03     7.84184E-03     3.81984E-03     3.82130E-03
             710               1     8.64506E-03     7.96076E-03     3.88081E-03     3.88271E-03
             711               1     8.82606E-03     8.14313E-03     3.97004E-03     3.97391E-03
             712               1     8.99867E-03     8.31458E-03     4.07985E-03     4.07883E-03
             713               1     9.16846E-03     8.50185E-03     4.17595E-03     4.18828E-03
             714               1     9.46115E-03     8.78965E-03     4.40700E-03     4.39612E-03
             715               1     9.65503E-03     9.06120E-03     4.57217E-03     4.61063E-03
             716               1     10.1461E-03     9.52779E-03     5.03633E-03     5.00643E-03
             717               1     10.3265E-03     9.97259E-03     5.31757E-03     5.42878E-03
             718               1     11.1674E-03     10.7809E-03     6.14886E-03     6.12397E-03
             719               1     4.01019E-03     3.00647E-03    -1.02413E-03    -1.04793E-03
             720               1     3.16356E-03     2.76823E-03     1.82217E-03     1.50582E-03
             721               1     5.38153E-03     4.78194E-03     2.52778E-03     2.37373E-03
             722               1     6.28226E-03     5.85475E-03     2.81069E-03     2.81077E-03
             723               1     7.40627E-03     6.87366E-03     3.30942E-03     3.26939E-03
             724               1     7.61869E-03     7.18645E-03     3.39707E-03     3.41966E-03
             725               1     8.14210E-03     7.65552E-03     3.66538E-03     3.65845E-03
             726               1     8.18202E-03     7.73244E-03     3.69460E-03     3.70701E-03
             727               1     8.45728E-03     7.98581E-03     3.82719E-03     3.82932E-03
             728               1     8.49398E-03     8.03326E-03     3.85197E-03     3.85932E-03
             729               1     8.67568E-03     8.20347E-03     3.92360E-03     3.92866E-03
             730               1     8.75433E-03     8.28674E-03     3.97100E-03     3.97588E-03
             731               1     8.91073E-03     8.43901E-03     4.01919E-03     4.03213E-03
             732               1     9.06399E-03     8.58961E-03     4.12676E-03     4.12353E-03
             733               1     9.22676E-03     8.78297E-03     4.17947E-03     4.22056E-03
             734               1     9.50621E-03     9.02726E-03     4.42963E-03     4.40232E-03
             735               1     9.66518E-03     9.35018E-03     4.54426E-03     4.65677E-03
             736               1     10.0484E-03     9.66420E-03     5.05287E-03     5.01929E-03
             737               1     10.2488E-03     10.3414E-03     5.39778E-03     5.63833E-03
             738               1     1.88959E-03     1.29179E-03    -1.06145E-03    -712.762E-06
             739               1     2.34415E-03     2.80933E-03     1.09192E-03     1.26040E-03
             740               1     5.59818E-03     5.45531E-03     2.67731E-03     2.63790E-03
             741               1     7.26133E-03     6.98258E-03     3.33703E-03     3.29874E-03
             742               1     7.68093E-03     7.49789E-03     3.54983E-03     3.57360E-03
             743               1     8.30585E-03     8.01764E-03     3.83124E-03     3.81558E-03
             744               1     8.24606E-03     8.03020E-03     3.82635E-03     3.84304E-03
             745               1     8.50214E-03     8.24179E-03     3.92461E-03     3.92499E-03
             746               1     8.43863E-03     8.20439E-03     3.90575E-03     3.91658E-03
             747               1     8.58821E-03     8.33359E-03     3.94444E-03     3.94938E-03
             748               1     8.57340E-03     8.33073E-03     3.94113E-03     3.95000E-03
             749               1     8.69428E-03     8.43557E-03     3.95447E-03     3.96293E-03
             750               1     8.71937E-03     8.47437E-03     3.97296E-03     3.97908E-03
             751               1     8.84034E-03     8.58192E-03     3.96763E-03     3.99037E-03
             752               1     8.91587E-03     8.67307E-03     4.04377E-03     4.03693E-03
             753               1     9.07229E-03     8.84511E-03     4.05232E-03     4.11495E-03
             754               1     9.27078E-03     9.03853E-03     4.32032E-03     4.27609E-03
             755               1     9.60224E-03     9.51515E-03     4.58631E-03     4.68938E-03
             756               1     10.0245E-03     9.94226E-03     5.27404E-03     5.23551E-03
             757               1     2.92560E-03     3.14714E-03    -1.03772E-03    -837.731E-06
             758               1     4.01741E-03     4.15768E-03     1.12425E-03     1.35774E-03
             759               1     6.05329E-03     6.36459E-03     2.65829E-03     2.80057E-03
             760               1     7.44955E-03     7.51648E-03     3.50855E-03     3.55076E-03
             761               1     8.35830E-03     8.30643E-03     3.95675E-03     3.95931E-03
             762               1     8.35079E-03     8.34899E-03     4.02010E-03     4.03217E-03
             763               1     8.59945E-03     8.54700E-03     4.08442E-03     4.08621E-03
             764               1     8.47040E-03     8.45092E-03     4.04167E-03     4.05100E-03
             765               1     8.57098E-03     8.53044E-03     4.03346E-03     4.03863E-03
             766               1     8.48842E-03     8.46427E-03     3.99631E-03     4.00598E-03
             767               1     8.56492E-03     8.52438E-03     3.97795E-03     3.98324E-03
             768               1     8.50972E-03     8.49042E-03     3.94817E-03     3.95905E-03
             769               1     8.58636E-03     8.53853E-03     3.91889E-03     3.92567E-03
             770               1     8.52618E-03     8.52592E-03     3.89342E-03     3.90425E-03
             771               1     8.63897E-03     8.57962E-03     3.85899E-03     3.87430E-03
             772               1     8.61021E-03     8.64352E-03     3.90065E-03     3.89960E-03
             773               1     8.92615E-03     8.85630E-03     3.99257E-03     4.01333E-03
             774               1     9.33509E-03     9.30906E-03     4.43291E-03     4.35188E-03
             775               1     10.6886E-03     10.5362E-03     5.44957E-03     5.29462E-03
             776               1     5.65992E-03     5.49975E-03    -954.826E-06    -644.055E-06
             777               1     5.48401E-03     6.04456E-03     1.39060E-03     1.59427E-03
             778               1     6.88322E-03     7.19836E-03     2.80283E-03     2.97447E-03
             779               1     8.13495E-03     8.38491E-03     3.80992E-03     3.87287E-03
             780               1     8.33301E-03     8.51999E-03     4.11295E-03     4.12066E-03
             781               1     8.60531E-03     8.77049E-03     4.19614E-03     4.21271E-03
             782               1     8.50937E-03     8.67926E-03     4.19737E-03     4.19900E-03
             783               1     8.55886E-03     8.72452E-03     4.14335E-03     4.15192E-03
             784               1     8.46243E-03     8.63933E-03     4.10284E-03     4.10923E-03
             785               1     8.49258E-03     8.66427E-03     4.05086E-03     4.05606E-03
             786               1     8.41295E-03     8.60276E-03     4.00708E-03     4.01724E-03
             787               1     8.45258E-03     8.62227E-03     3.96492E-03     3.96587E-03
             788               1     8.34917E-03     8.56422E-03     3.90759E-03     3.92258E-03
             789               1     8.41704E-03     8.56976E-03     3.86959E-03     3.86238E-03
             790               1     8.26989E-03     8.53697E-03     3.80243E-03     3.82514E-03
             791               1     8.48521E-03     8.59419E-03     3.81802E-03     3.79304E-03
             792               1     8.49759E-03     8.80563E-03     3.88393E-03     3.89622E-03
             793               1     9.32784E-03     9.34773E-03     4.24087E-03     4.16546E-03
             794               1     11.0690E-03     10.8808E-03     5.28815E-03     5.07270E-03
             795               1     7.51804E-03     8.10540E-03    -552.692E-06    -267.711E-06
             796               1     7.61247E-03     7.84395E-03     1.61600E-03     1.86946E-03
             797               1     8.39509E-03     8.79658E-03     3.50917E-03     3.54087E-03
             798               1     8.20132E-03     8.56774E-03     3.97840E-03     3.98022E-03
             799               1     8.43047E-03     8.83590E-03     4.13244E-03     4.17552E-03
             800               1     8.45858E-03     8.79433E-03     4.26960E-03     4.25894E-03
             801               1     8.45374E-03     8.82437E-03     4.19132E-03     4.20970E-03
             802               1     8.42545E-03     8.78197E-03     4.20095E-03     4.20045E-03
             803               1     8.41219E-03     8.78524E-03     4.12101E-03     4.12854E-03
             804               1     8.36373E-03     8.74526E-03     4.09448E-03     4.10077E-03
             805               1     8.37298E-03     8.75258E-03     4.03989E-03     4.04111E-03
             806               1     8.29268E-03     8.70229E-03     3.99146E-03     4.00355E-03
             807               1     8.33491E-03     8.70621E-03     3.96033E-03     3.94982E-03
             808               1     8.19608E-03     8.65242E-03     3.88346E-03     3.90692E-03
             809               1     8.34193E-03     8.67073E-03     3.89814E-03     3.85844E-03
             810               1     8.18554E-03     8.72947E-03     3.81466E-03     3.86447E-03
             811               1     8.70959E-03     8.95255E-03     3.98197E-03     3.89045E-03
             812               1     9.03800E-03     9.62759E-03     4.12868E-03     4.20004E-03
             813               1     10.6640E-03     10.8870E-03     4.62755E-03     4.59111E-03
             814               1     11.6502E-03     11.1568E-03    -270.648E-06    -125.906E-06
             815               1     10.3437E-03     10.8757E-03     3.25493E-03     3.10708E-03
             816               1     8.42991E-03     9.00607E-03     3.78807E-03     3.71533E-03
             817               1     8.21708E-03     8.86487E-03     3.86341E-03     3.89975E-03
             818               1     8.28504E-03     8.80485E-03     4.17402E-03     4.14990E-03
             819               1     8.19424E-03     8.77832E-03     4.09745E-03     4.12628E-03
             820               1     8.31330E-03     8.84167E-03     4.22255E-03     4.21484E-03
             821               1     8.26369E-03     8.83055E-03     4.13597E-03     4.14675E-03
             822               1     8.30235E-03     8.86212E-03     4.16274E-03     4.16388E-03
             823               1     8.28318E-03     8.86045E-03     4.09831E-03     4.10134E-03
             824               1     8.26288E-03     8.85487E-03     4.07947E-03     4.08592E-03
             825               1     8.28170E-03     8.86617E-03     4.04643E-03     4.04197E-03
             826               1     8.21166E-03     8.83898E-03     3.99964E-03     4.01311E-03
             827               1     8.31652E-03     8.87998E-03     4.01866E-03     3.99387E-03
             828               1     8.21397E-03     8.89957E-03     3.95170E-03     3.98410E-03
             829               1     8.56783E-03     9.06029E-03     4.08503E-03     4.01300E-03
             830               1     8.55370E-03     9.37179E-03     4.02595E-03     4.11431E-03
             831               1     9.56487E-03     10.0174E-03     4.36539E-03     4.26053E-03
             832               1     10.1363E-03     11.2319E-03     4.43347E-03     4.67372E-03
             833               1     15.2021E-03     17.2272E-03     2.36470E-03     1.96976E-03
             834               1     9.73205E-03     10.8814E-03     3.70143E-03     3.52720E-03
             835               1     8.12749E-03     9.17557E-03     3.30545E-03     3.32013E-03
             836               1     8.11124E-03     8.93003E-03     3.89394E-03     3.85922E-03
             837               1     7.83144E-03     8.65517E-03     3.83378E-03     3.85523E-03
             838               1     8.12181E-03     8.85697E-03     4.12600E-03     4.11652E-03
             839               1     8.04064E-03     8.80278E-03     4.06827E-03     4.07753E-03
             840               1     8.20604E-03     8.94549E-03     4.18231E-03     4.18018E-03
             841               1     8.15791E-03     8.92159E-03     4.11979E-03     4.12253E-03
             842               1     8.21391E-03     8.98275E-03     4.14262E-03     4.14397E-03
             843               1     8.19878E-03     8.98109E-03     4.09945E-03     4.09906E-03
             844               1     8.19527E-03     8.99719E-03     4.08144E-03     4.08561E-03
             845               1     8.25254E-03     9.04451E-03     4.08434E-03     4.07785E-03
             846               1     8.23983E-03     9.07556E-03     4.05676E-03     4.06722E-03
             847               1     8.47903E-03     9.24736E-03     4.15650E-03     4.13218E-03
             848               1     8.55117E-03     9.44129E-03     4.15103E-03     4.18181E-03
             849               1     9.23503E-03     9.94360E-03     4.43936E-03     4.37930E-03
             850               1     9.54983E-03     10.6415E-03     4.44885E-03     4.55453E-03
             851               1     11.2980E-03     12.1002E-03     5.05058E-03     4.97194E-03
             852               1     4.89396E-03     4.33540E-03    -1.41374E-03    -2.38697E-03
             853               1     7.95736E-03     6.76383E-03    -521.902E-06    -842.270E-06
             854               1     10.0109E-03     9.21474E-03     247.187E-06     165.834E-06
             855               1     11.7019E-03     11.0791E-03     1.14652E-03     1.07235E-03
             856               1     12.9679E-03     12.4842E-03     1.75214E-03     1.74473E-03
             857               1     14.0843E-03     13.6264E-03     2.44203E-03     2.42631E-03
             858               1     14.8753E-03     14.4497E-03     2.86794E-03     2.87387E-03
             859               1     15.6422E-03     15.2120E-03     3.37035E-03     3.37118E-03
             860               1     16.1739E-03     15.7415E-03     3.68360E-03     3.69188E-03
             861               1     16.7348E-03     16.2924E-03     4.06068E-03     4.06704E-03
             862               1     17.1502E-03     16.6932E-03     4.34001E-03     4.34956E-03
             863               1     17.6004E-03     17.1316E-03     4.66827E-03     4.68025E-03
             864               1     17.9809E-03     17.4868E-03     4.99027E-03     5.00233E-03
             865               1     18.3730E-03     17.8642E-03     5.34829E-03     5.37299E-03
             866               1     18.7524E-03     18.2001E-03     5.79145E-03     5.80820E-03
             867               1     19.0918E-03     18.5235E-03     6.25665E-03     6.30836E-03
             868               1     19.4519E-03     18.8106E-03     6.89894E-03     6.92751E-03
             869               1     19.6704E-03     19.0298E-03     7.52445E-03     7.62788E-03
             870               1     19.9005E-03     19.1698E-03     8.43850E-03     8.50121E-03
             871               1     5.06385E-03     6.89767E-03    -1.57990E-03    -1.84506E-03
             872               1     8.74647E-03     8.43721E-03     422.874E-06    -107.840E-06
             873               1     11.2948E-03     10.8364E-03     1.20225E-03     923.717E-06
             874               1     12.8730E-03     12.5236E-03     1.75378E-03     1.66942E-03
             875               1     14.1282E-03     13.7700E-03     2.43713E-03     2.35712E-03
             876               1     14.9339E-03     14.6597E-03     2.81730E-03     2.81682E-03
             877               1     15.7193E-03     15.4312E-03     3.32013E-03     3.30875E-03
             878               1     16.1887E-03     15.9316E-03     3.58999E-03     3.60760E-03
             879               1     16.7509E-03     16.4791E-03     3.94736E-03     3.95809E-03
             880               1     17.0960E-03     16.8319E-03     4.16713E-03     4.19025E-03
             881               1     17.5535E-03     17.2744E-03     4.44533E-03     4.46703E-03
             882               1     17.8737E-03     17.5963E-03     4.67374E-03     4.70334E-03
             883               1     18.2857E-03     17.9937E-03     4.93702E-03     4.97715E-03
             884               1     18.6174E-03     18.3259E-03     5.23669E-03     5.27701E-03
             885               1     18.9906E-03     18.6957E-03     5.54748E-03     5.62698E-03
             886               1     19.3093E-03     19.0118E-03     5.99035E-03     6.05022E-03
             887               1     19.5751E-03     19.3219E-03     6.42147E-03     6.56697E-03
             888               1     19.7046E-03     19.4685E-03     7.06702E-03     7.17452E-03
             889               1     19.7577E-03     19.6677E-03     7.75351E-03     7.95835E-03
             890               1     8.03569E-03     7.94130E-03    -1.35736E-03    -1.07843E-03
             891               1     9.50988E-03     10.3762E-03     541.569E-06     518.024E-06
             892               1     12.2254E-03     12.2959E-03     1.76315E-03     1.57375E-03
             893               1     13.9525E-03     13.8509E-03     2.53670E-03     2.41059E-03
             894               1     14.9637E-03     14.8984E-03     2.94924E-03     2.91840E-03
             895               1     15.8599E-03     15.7247E-03     3.46923E-03     3.43261E-03
             896               1     16.2830E-03     16.2038E-03     3.68455E-03     3.69881E-03
             897               1     16.8439E-03     16.7317E-03     4.01190E-03     4.01680E-03
             898               1     17.0903E-03     17.0072E-03     4.15553E-03     4.18244E-03
             899               1     17.5200E-03     17.4163E-03     4.37281E-03     4.39414E-03
             900               1     17.7434E-03     17.6603E-03     4.50542E-03     4.54030E-03
             901               1     18.1319E-03     18.0290E-03     4.68008E-03     4.71617E-03
             902               1     18.3767E-03     18.3037E-03     4.84755E-03     4.89276E-03
             903               1     18.7547E-03     18.6630E-03     5.03182E-03     5.09730E-03
             904               1     19.0187E-03     18.9745E-03     5.29881E-03     5.35486E-03
             905               1     19.3562E-03     19.3222E-03     5.56769E-03     5.68262E-03
             906               1     19.5617E-03     19.5857E-03     6.03096E-03     6.09394E-03
             907               1     19.7779E-03     19.9039E-03     6.57017E-03     6.71098E-03
             908               1     19.7071E-03     19.8811E-03     7.35638E-03     7.39879E-03
             909               1     9.44543E-03     10.3321E-03    -971.457E-06    -1.01639E-03
             910               1     11.4339E-03     11.7711E-03     783.588E-06     921.453E-06
             911               1     13.1564E-03     13.6870E-03     2.18087E-03     2.21377E-03
             912               1     14.7281E-03     14.9677E-03     2.99117E-03     2.96097E-03
             913               1     15.8779E-03     15.9796E-03     3.66322E-03     3.63610E-03
             914               1     16.3519E-03     16.4767E-03     3.90709E-03     3.91477E-03
             915               1     16.9650E-03     17.0195E-03     4.23908E-03     4.23992E-03
             916               1     17.1154E-03     17.2097E-03     4.31754E-03     4.34148E-03
             917               1     17.5170E-03     17.5787E-03     4.47641E-03     4.49387E-03
             918               1     17.6319E-03     17.7255E-03     4.52011E-03     4.55289E-03
             919               1     17.9731E-03     18.0424E-03     4.61315E-03     4.63963E-03
             920               1     18.1150E-03     18.2279E-03     4.66703E-03     4.70899E-03
             921               1     18.4579E-03     18.5389E-03     4.74799E-03     4.78801E-03
             922               1     18.6324E-03     18.7902E-03     4.85596E-03     4.90586E-03
             923               1     18.9980E-03     19.1156E-03     4.98266E-03     5.04772E-03
             924               1     19.2076E-03     19.4333E-03     5.24780E-03     5.28673E-03
             925               1     19.5741E-03     19.7966E-03     5.58247E-03     5.65978E-03
             926               1     19.8416E-03     20.1137E-03     6.20925E-03     6.18388E-03
             927               1     20.3763E-03     20.7055E-03     7.25757E-03     7.18982E-03
             928               1     11.9008E-03     12.3445E-03    -796.718E-06    -489.191E-06
             929               1     12.8146E-03     13.5465E-03     1.20151E-03     1.28073E-03
             930               1     14.4348E-03     14.9183E-03     2.49817E-03     2.62776E-03
             931               1     15.7064E-03     16.1538E-03     3.62443E-03     3.68614E-03
             932               1     16.3373E-03     16.6944E-03     4.08437E-03     4.11532E-03
             933               1     17.0611E-03     17.3142E-03     4.52989E-03     4.55061E-03
             934               1     17.1315E-03     17.4079E-03     4.59829E-03     4.62110E-03
             935               1     17.5269E-03     17.7536E-03     4.72204E-03     4.74102E-03
             936               1     17.5385E-03     17.7988E-03     4.69923E-03     4.72656E-03
             937               1     17.8301E-03     18.0626E-03     4.71997E-03     4.73969E-03
             938               1     17.8760E-03     18.1525E-03     4.68701E-03     4.72124E-03
             939               1     18.1595E-03     18.4021E-03     4.68390E-03     4.70379E-03
             940               1     18.2395E-03     18.5613E-03     4.66958E-03     4.71059E-03
             941               1     18.5674E-03     18.8282E-03     4.68476E-03     4.70755E-03
             942               1     18.6946E-03     19.0904E-03     4.75434E-03     4.78888E-03
             943               1     19.1221E-03     19.4261E-03     4.88345E-03     4.90891E-03
             944               1     19.4368E-03     19.8662E-03     5.24850E-03     5.21411E-03
             945               1     20.0397E-03     20.4352E-03     5.81440E-03     5.79488E-03
             946               1     21.1048E-03     21.2721E-03     6.90712E-03     6.70211E-03
             947               1     13.6411E-03     14.3699E-03    -278.139E-06    -179.140E-06
             948               1     14.7889E-03     15.4021E-03     1.48728E-03     1.74515E-03
             949               1     15.8101E-03     16.4504E-03     3.22172E-03     3.34106E-03
             950               1     16.4086E-03     16.9713E-03     4.01728E-03     4.13114E-03
             951               1     17.1968E-03     17.6701E-03     4.76298E-03     4.83789E-03
             952               1     17.1409E-03     17.5978E-03     4.90362E-03     4.93908E-03
             953               1     17.5358E-03     17.9358E-03     5.03478E-03     5.07022E-03
             954               1     17.4496E-03     17.8706E-03     4.98696E-03     5.01019E-03
             955               1     17.6975E-03     18.0901E-03     4.94867E-03     4.96903E-03
             956               1     17.6674E-03     18.0960E-03     4.86188E-03     4.88752E-03
             957               1     17.8891E-03     18.2888E-03     4.79086E-03     4.80062E-03
             958               1     17.8967E-03     18.3615E-03     4.69959E-03     4.73035E-03
             959               1     18.1527E-03     18.5603E-03     4.63753E-03     4.63370E-03
             960               1     18.1884E-03     18.7212E-03     4.56761E-03     4.59989E-03
             961               1     18.5612E-03     18.9766E-03     4.56128E-03     4.53948E-03
             962               1     18.7187E-03     19.3282E-03     4.62663E-03     4.63333E-03
             963               1     19.3763E-03     19.7987E-03     4.82351E-03     4.78582E-03
             964               1     20.1658E-03     20.6423E-03     5.42977E-03     5.30193E-03
             965               1     21.3004E-03     21.7837E-03     6.24737E-03     6.20471E-03
             966               1     16.2182E-03     16.7992E-03     22.8433E-06     324.990E-06
             967               1     16.6783E-03     17.3867E-03     2.40948E-03     2.54343E-03
             968               1     17.0258E-03     17.7408E-03     3.66261E-03     3.86659E-03
             969               1     17.7176E-03     18.3332E-03     4.93052E-03     5.04886E-03
             970               1     17.2539E-03     17.8682E-03     5.16782E-03     5.23267E-03
             971               1     17.5836E-03     18.1546E-03     5.33760E-03     5.40270E-03
             972               1     17.3720E-03     17.9437E-03     5.31286E-03     5.33708E-03
             973               1     17.5626E-03     18.1150E-03     5.22748E-03     5.25740E-03
             974               1     17.4791E-03     18.0533E-03     5.12597E-03     5.14439E-03
             975               1     17.6430E-03     18.1992E-03     4.99937E-03     5.00911E-03
             976               1     17.6130E-03     18.2140E-03     4.87477E-03     4.89540E-03
             977               1     17.7968E-03     18.3570E-03     4.75891E-03     4.74741E-03
             978               1     17.7818E-03     18.4325E-03     4.62309E-03     4.64660E-03
             979               1     18.0497E-03     18.6042E-03     4.54201E-03     4.49890E-03
             980               1     18.0772E-03     18.8064E-03     4.42764E-03     4.45069E-03
             981               1     18.5944E-03     19.1253E-03     4.43699E-03     4.35959E-03
             982               1     18.9097E-03     19.6932E-03     4.51434E-03     4.51227E-03
             983               1     20.0509E-03     20.5352E-03     4.74649E-03     4.70714E-03
             984               1     21.6893E-03     22.0725E-03     5.69517E-03     5.51661E-03
             985               1     18.5040E-03     19.2931E-03     878.524E-06     1.00186E-03
             986               1     18.8479E-03     19.6138E-03     2.95664E-03     3.22513E-03
             987               1     19.2105E-03     19.8713E-03     5.16600E-03     5.30723E-03
             988               1     17.7084E-03     18.4369E-03     5.45378E-03     5.53112E-03
             989               1     17.7875E-03     18.4952E-03     5.59460E-03     5.68341E-03
             990               1     17.3598E-03     18.0626E-03     5.62545E-03     5.65170E-03
             991               1     17.4279E-03     18.1344E-03     5.48546E-03     5.52913E-03
             992               1     17.3070E-03     18.0197E-03     5.41150E-03     5.42449E-03
             993               1     17.4030E-03     18.1150E-03     5.23828E-03     5.25388E-03
             994               1     17.3694E-03     18.1072E-03     5.11805E-03     5.13057E-03
             995               1     17.4915E-03     18.2095E-03     4.96284E-03     4.95602E-03
             996               1     17.4725E-03     18.2446E-03     4.81514E-03     4.82958E-03
             997               1     17.6481E-03     18.3575E-03     4.69362E-03     4.65460E-03
             998               1     17.6324E-03     18.4552E-03     4.52312E-03     4.54160E-03
             999               1     17.9669E-03     18.6430E-03     4.45909E-03     4.37128E-03
            1000               1     18.0379E-03     18.9448E-03     4.29209E-03     4.32842E-03
            1001               1     18.8291E-03     19.4446E-03     4.32887E-03     4.20965E-03
            1002               1     19.3549E-03     20.3431E-03     4.32970E-03     4.41250E-03
            1003               1     21.3493E-03     21.9137E-03     4.50122E-03     4.55840E-03
            1004               1     22.5882E-03     23.2045E-03     1.43124E-03     1.72936E-03
            1005               1     22.6068E-03     23.2482E-03     5.62372E-03     5.76392E-03
            1006               1     18.8454E-03     19.6337E-03     5.95612E-03     5.99803E-03
            1007               1     18.2471E-03     19.0541E-03     5.78315E-03     5.87339E-03
            1008               1     17.5135E-03     18.3262E-03     5.90812E-03     5.92546E-03
            1009               1     17.3187E-03     18.1613E-03     5.66742E-03     5.71572E-03
            1010               1     17.1723E-03     18.0151E-03     5.66340E-03     5.67084E-03
            1011               1     17.1613E-03     18.0234E-03     5.44956E-03     5.46964E-03
            1012               1     17.1508E-03     18.0266E-03     5.36706E-03     5.37302E-03
            1013               1     17.2103E-03     18.0878E-03     5.18291E-03     5.18421E-03
            1014               1     17.2196E-03     18.1259E-03     5.05503E-03     5.06234E-03
            1015               1     17.3260E-03     18.2036E-03     4.90563E-03     4.88517E-03
            1016               1     17.3305E-03     18.2637E-03     4.74586E-03     4.75499E-03
            1017               1     17.5321E-03     18.3788E-03     4.64563E-03     4.58778E-03
            1018               1     17.5614E-03     18.5308E-03     4.45222E-03     4.47268E-03
            1019               1     18.0244E-03     18.8034E-03     4.42840E-03     4.31694E-03
            1020               1     18.1959E-03     19.2648E-03     4.18037E-03     4.26210E-03
            1021               1     19.3789E-03     20.1011E-03     4.25235E-03     4.12697E-03
            1022               1     20.0727E-03     21.3800E-03     3.95650E-03     4.23981E-03
            1023               1     29.1003E-03     29.9841E-03     5.35499E-03     5.51833E-03
            1024               1     21.3621E-03     22.1986E-03     6.91445E-03     6.85907E-03
            1025               1     18.8619E-03     19.7850E-03     5.74302E-03     5.81289E-03
            1026               1     17.9543E-03     18.8710E-03     6.11702E-03     6.10646E-03
            1027               1     17.2583E-03     18.2219E-03     5.71884E-03     5.75148E-03
            1028               1     17.1265E-03     18.0984E-03     5.83892E-03     5.83747E-03
            1029               1     16.9383E-03     17.9394E-03     5.59670E-03     5.61064E-03
            1030               1     16.9682E-03     17.9835E-03     5.58052E-03     5.58102E-03
            1031               1     16.9438E-03     17.9753E-03     5.38101E-03     5.38492E-03
            1032               1     16.9937E-03     18.0441E-03     5.28885E-03     5.29072E-03
            1033               1     17.0367E-03     18.0861E-03     5.11772E-03     5.11379E-03
            1034               1     17.0813E-03     18.1554E-03     4.98553E-03     4.98852E-03
            1035               1     17.1948E-03     18.2343E-03     4.85363E-03     4.83727E-03
            1036               1     17.2607E-03     18.3397E-03     4.69900E-03     4.70505E-03
            1037               1     17.5313E-03     18.5098E-03     4.63098E-03     4.59120E-03
            1038               1     17.6966E-03     18.7722E-03     4.44533E-03     4.46995E-03
            1039               1     18.3512E-03     19.2177E-03     4.47866E-03     4.40191E-03
            1040               1     18.7617E-03     19.9384E-03     4.16219E-03     4.27254E-03
            1041               1     20.4135E-03     21.2889E-03     4.35579E-03     4.25300E-03
            1042               1     17.1338E-03     15.3998E-03    -3.46312E-03    -4.66751E-03
            1043               1     18.0079E-03     17.1858E-03    -2.81708E-03    -3.16548E-03
            1044               1     19.5389E-03     19.1535E-03    -1.16717E-03    -1.30787E-03
            1045               1     20.8581E-03     20.7130E-03    -227.740E-06    -305.119E-06
            1046               1     22.1597E-03     22.1588E-03     963.083E-06     930.035E-06
            1047               1     23.1846E-03     23.2368E-03     1.69898E-03     1.68467E-03
            1048               1     24.1891E-03     24.2709E-03     2.60746E-03     2.60544E-03
            1049               1     24.9303E-03     25.0047E-03     3.17565E-03     3.18064E-03
            1050               1     25.6998E-03     25.7631E-03     3.88676E-03     3.89654E-03
            1051               1     26.2548E-03     26.2870E-03     4.36247E-03     4.37550E-03
            1052               1     26.8636E-03     26.8662E-03     4.96063E-03     4.97842E-03
            1053               1     27.3173E-03     27.2722E-03     5.42482E-03     5.44463E-03
            1054               1     27.8248E-03     27.7333E-03     5.99897E-03     6.02956E-03
            1055               1     28.2289E-03     28.0654E-03     6.53080E-03     6.56002E-03
            1056               1     28.6694E-03     28.4364E-03     7.17005E-03     7.22418E-03
            1057               1     29.0385E-03     28.6960E-03     7.84416E-03     7.88735E-03
            1058               1     29.4118E-03     28.9742E-03     8.63365E-03     8.72601E-03
            1059               1     29.7096E-03     29.1164E-03     9.51315E-03     9.57390E-03
            1060               1     29.9390E-03     29.2524E-03     10.5298E-03     10.6751E-03
            1061               1     15.1828E-03     17.6811E-03    -2.10722E-03    -2.53999E-03
            1062               1     19.6072E-03     19.7119E-03    -969.838E-06    -1.69176E-03
            1063               1     20.9649E-03     20.9523E-03    -181.636E-06    -511.177E-06
            1064               1     22.5627E-03     22.5826E-03     864.566E-06     691.995E-06
            1065               1     23.5543E-03     23.6345E-03     1.55408E-03     1.46148E-03
            1066               1     24.5941E-03     24.7154E-03     2.42508E-03     2.38976E-03
            1067               1     25.2633E-03     25.4103E-03     2.95819E-03     2.94932E-03
            1068               1     26.0277E-03     26.1805E-03     3.64295E-03     3.65619E-03
            1069               1     26.5035E-03     26.6547E-03     4.06826E-03     4.09191E-03
            1070               1     27.1110E-03     27.2489E-03     4.61772E-03     4.65343E-03
            1071               1     27.5019E-03     27.6258E-03     5.00256E-03     5.04520E-03
            1072               1     28.0196E-03     28.1198E-03     5.48862E-03     5.54807E-03
            1073               1     28.3862E-03     28.4657E-03     5.90234E-03     5.96488E-03
            1074               1     28.8416E-03     28.8957E-03     6.39804E-03     6.49949E-03
            1075               1     29.2005E-03     29.2236E-03     6.91310E-03     7.00032E-03
            1076               1     29.5679E-03     29.5879E-03     7.49002E-03     7.65973E-03
            1077               1     29.8807E-03     29.8530E-03     8.18068E-03     8.29137E-03
            1078               1     30.0391E-03     30.0893E-03     8.90868E-03     9.15888E-03
            1079               1     30.1996E-03     30.1948E-03     9.87777E-03     9.96142E-03
            1080               1     17.6734E-03     18.0742E-03    -1.55863E-03    -1.35267E-03
            1081               1     19.9501E-03     21.2604E-03     62.7928E-06    -58.0916E-06
            1082               1     22.4973E-03     22.9189E-03     1.03717E-03     693.605E-06
            1083               1     23.7557E-03     24.0674E-03     1.73378E-03     1.56811E-03
            1084               1     24.9851E-03     25.2293E-03     2.54022E-03     2.43474E-03
            1085               1     25.6505E-03     25.9019E-03     3.02798E-03     2.98256E-03
            1086               1     26.4329E-03     26.6772E-03     3.66263E-03     3.65615E-03
            1087               1     26.8169E-03     27.0736E-03     4.01522E-03     4.02962E-03
            1088               1     27.4006E-03     27.6502E-03     4.49411E-03     4.52854E-03
            1089               1     27.6896E-03     27.9469E-03     4.78318E-03     4.82806E-03
            1090               1     28.1815E-03     28.4258E-03     5.17006E-03     5.23066E-03
            1091               1     28.4629E-03     28.7208E-03     5.45900E-03     5.52751E-03
            1092               1     28.9091E-03     29.1507E-03     5.82033E-03     5.91744E-03
            1093               1     29.2109E-03     29.4803E-03     6.17488E-03     6.26714E-03
            1094               1     29.6030E-03     29.8694E-03     6.57615E-03     6.73122E-03
            1095               1     29.9103E-03     30.2164E-03     7.07949E-03     7.18669E-03
            1096               1     30.1603E-03     30.5162E-03     7.60461E-03     7.81697E-03
            1097               1     30.4051E-03     30.8001E-03     8.37574E-03     8.44789E-03
            1098               1     30.3488E-03     30.8413E-03     9.17935E-03     9.30848E-03
            1099               1     19.1924E-03     20.4008E-03    -888.169E-06    -1.03609E-03
            1100               1     21.5099E-03     22.2048E-03     718.254E-06     722.651E-06
            1101               1     23.4111E-03     24.3414E-03     1.83468E-03     1.81412E-03
            1102               1     25.0543E-03     25.5643E-03     2.75494E-03     2.61404E-03
            1103               1     25.9082E-03     26.3800E-03     3.28489E-03     3.23555E-03
            1104               1     26.7943E-03     27.1728E-03     3.91483E-03     3.88292E-03
            1105               1     27.1238E-03     27.5062E-03     4.20858E-03     4.21036E-03
            1106               1     27.6986E-03     28.0560E-03     4.62182E-03     4.64557E-03
            1107               1     27.8718E-03     28.2438E-03     4.81213E-03     4.84841E-03
            1108               1     28.3223E-03     28.6826E-03     5.09566E-03     5.14584E-03
            1109               1     28.4923E-03     28.8813E-03     5.26114E-03     5.32096E-03
            1110               1     28.9008E-03     29.2752E-03     5.49270E-03     5.56734E-03
            1111               1     29.1106E-03     29.5427E-03     5.69152E-03     5.77113E-03
            1112               1     29.5026E-03     29.9156E-03     5.93173E-03     6.04376E-03
            1113               1     29.7601E-03     30.2678E-03     6.24321E-03     6.33009E-03
            1114               1     30.1007E-03     30.6033E-03     6.57133E-03     6.72451E-03
            1115               1     30.3988E-03     31.0008E-03     7.12891E-03     7.17621E-03
            1116               1     30.5945E-03     31.2235E-03     7.70377E-03     7.81366E-03
            1117               1     31.0034E-03     31.5919E-03     8.75824E-03     8.64551E-03
            1118               1     21.1435E-03     22.1690E-03    -444.718E-06    -269.617E-06
            1119               1     22.9612E-03     24.0364E-03     1.25426E-03     1.29464E-03
            1120               1     24.7284E-03     25.4651E-03     2.64601E-03     2.65491E-03
            1121               1     25.9317E-03     26.7545E-03     3.45533E-03     3.49467E-03
            1122               1     27.0140E-03     27.5772E-03     4.25098E-03     4.23168E-03
            1123               1     27.3574E-03     27.9200E-03     4.56218E-03     4.57720E-03
            1124               1     27.9639E-03     28.4439E-03     4.96442E-03     4.98526E-03
            1125               1     28.0212E-03     28.5111E-03     5.07569E-03     5.10608E-03
            1126               1     28.4344E-03     28.8997E-03     5.26606E-03     5.30636E-03
            1127               1     28.4828E-03     28.9769E-03     5.31969E-03     5.36674E-03
            1128               1     28.8365E-03     29.3150E-03     5.42841E-03     5.47962E-03
            1129               1     28.9383E-03     29.4797E-03     5.48712E-03     5.54855E-03
            1130               1     29.2920E-03     29.8053E-03     5.58260E-03     5.64801E-03
            1131               1     29.4582E-03     30.0891E-03     5.70640E-03     5.77368E-03
            1132               1     29.8344E-03     30.4140E-03     5.85034E-03     5.93529E-03
            1133               1     30.0966E-03     30.8376E-03     6.16220E-03     6.19923E-03
            1134               1     30.4702E-03     31.1530E-03     6.48599E-03     6.56191E-03
            1135               1     30.9244E-03     31.6695E-03     7.20761E-03     7.13840E-03
            1136               1     31.3686E-03     32.0512E-03     8.00267E-03     7.92920E-03
            1137               1     23.2175E-03     24.1626E-03     117.381E-06     228.575E-06
            1138               1     24.6112E-03     25.5589E-03     1.95984E-03     2.07039E-03
            1139               1     25.9688E-03     26.9935E-03     3.22451E-03     3.34668E-03
            1140               1     27.1705E-03     27.9009E-03     4.44603E-03     4.51241E-03
            1141               1     27.5390E-03     28.3274E-03     4.91498E-03     4.98892E-03
            1142               1     28.2095E-03     28.8255E-03     5.43405E-03     5.48171E-03
            1143               1     28.1276E-03     28.7533E-03     5.51240E-03     5.55507E-03
            1144               1     28.5149E-03     29.0855E-03     5.64044E-03     5.68263E-03
            1145               1     28.4347E-03     29.0265E-03     5.60606E-03     5.64538E-03
            1146               1     28.7291E-03     29.3003E-03     5.60265E-03     5.63959E-03
            1147               1     28.7237E-03     29.3465E-03     5.54820E-03     5.59212E-03
            1148               1     29.0122E-03     29.6075E-03     5.51569E-03     5.54671E-03
            1149               1     29.0780E-03     29.7804E-03     5.48478E-03     5.53152E-03
            1150               1     29.4157E-03     30.0542E-03     5.47295E-03     5.49860E-03
            1151               1     29.5726E-03     30.3950E-03     5.54341E-03     5.57508E-03
            1152               1     30.0171E-03     30.7167E-03     5.62771E-03     5.64867E-03
            1153               1     30.4025E-03     31.2891E-03     6.00483E-03     5.96353E-03
            1154               1     30.9807E-03     31.7505E-03     6.39843E-03     6.39642E-03
            1155               1     31.8711E-03     32.4926E-03     7.34679E-03     7.20354E-03
            1156               1     25.0577E-03     26.2060E-03     780.322E-06     871.035E-06
            1157               1     26.4971E-03     27.5854E-03     2.52934E-03     2.73161E-03
            1158               1     27.6186E-03     28.4806E-03     4.33624E-03     4.48521E-03
            1159               1     27.8928E-03     28.8616E-03     5.11488E-03     5.25624E-03
            1160               1     28.5872E-03     29.3271E-03     5.94018E-03     6.05792E-03
            1161               1     28.2415E-03     29.0089E-03     6.04394E-03     6.12163E-03
            1162               1     28.5936E-03     29.2688E-03     6.15276E-03     6.21818E-03
            1163               1     28.3580E-03     29.0490E-03     6.06445E-03     6.10768E-03
            1164               1     28.5893E-03     29.2507E-03     5.96189E-03     5.99843E-03
            1165               1     28.4840E-03     29.1808E-03     5.82714E-03     5.85990E-03
            1166               1     28.6980E-03     29.3712E-03     5.68214E-03     5.69631E-03
            1167               1     28.6784E-03     29.4301E-03     5.54307E-03     5.57219E-03
            1168               1     28.9338E-03     29.6306E-03     5.40824E-03     5.39627E-03
            1169               1     28.9842E-03     29.8373E-03     5.29847E-03     5.32074E-03
            1170               1     29.3668E-03     30.0922E-03     5.21099E-03     5.17038E-03
            1171               1     29.5639E-03     30.5399E-03     5.23821E-03     5.23545E-03
            1172               1     30.2244E-03     30.9735E-03     5.28852E-03     5.24794E-03
            1173               1     30.9233E-03     31.8296E-03     5.77957E-03     5.69175E-03
            1174               1     31.8306E-03     32.6872E-03     6.27820E-03     6.31099E-03
            1175               1     27.6148E-03     28.6757E-03     1.32932E-03     1.65330E-03
            1176               1     28.6800E-03     29.6083E-03     3.82076E-03     3.97423E-03
            1177               1     28.8525E-03     29.9663E-03     5.09359E-03     5.30917E-03
            1178               1     29.4710E-03     30.3032E-03     6.48711E-03     6.69737E-03
            1179               1     28.5146E-03     29.3871E-03     6.63940E-03     6.76039E-03
            1180               1     28.7590E-03     29.5237E-03     6.74259E-03     6.85234E-03
            1181               1     28.2927E-03     29.0769E-03     6.63523E-03     6.69295E-03
            1182               1     28.4343E-03     29.1837E-03     6.43781E-03     6.48766E-03
            1183               1     28.2327E-03     29.0057E-03     6.25830E-03     6.28797E-03
            1184               1     28.3669E-03     29.1221E-03     6.01194E-03     6.02547E-03
            1185               1     28.2873E-03     29.0908E-03     5.81067E-03     5.82833E-03
            1186               1     28.4516E-03     29.2166E-03     5.57702E-03     5.55424E-03
            1187               1     28.4325E-03     29.3002E-03     5.36677E-03     5.37621E-03
            1188               1     28.6900E-03     29.4603E-03     5.16456E-03     5.09435E-03
            1189               1     28.7426E-03     29.7166E-03     4.97208E-03     4.97621E-03
            1190               1     29.2536E-03     30.0176E-03     4.82843E-03     4.71876E-03
            1191               1     29.5456E-03     30.6328E-03     4.78609E-03     4.78853E-03
            1192               1     30.6219E-03     31.3782E-03     4.76984E-03     4.74188E-03
            1193               1     31.9060E-03     32.7040E-03     5.46605E-03     5.37502E-03
            1194               1     30.2787E-03     31.2190E-03     2.53394E-03     2.54603E-03
            1195               1     30.9665E-03     32.2795E-03     4.71255E-03     5.02375E-03
            1196               1     31.5151E-03     32.3813E-03     7.23094E-03     7.55776E-03
            1197               1     29.2049E-03     30.1124E-03     7.39423E-03     7.55382E-03
            1198               1     29.1466E-03     29.9677E-03     7.38197E-03     7.54241E-03
            1199               1     28.3239E-03     29.1717E-03     7.28341E-03     7.35383E-03
            1200               1     28.2929E-03     29.1202E-03     6.96164E-03     7.03154E-03
            1201               1     27.9929E-03     28.8414E-03     6.77454E-03     6.80522E-03
            1202               1     28.0260E-03     28.8678E-03     6.43064E-03     6.45263E-03
            1203               1     27.9125E-03     28.7827E-03     6.20647E-03     6.21929E-03
            1204               1     27.9899E-03     28.8389E-03     5.89044E-03     5.87540E-03
            1205               1     27.9429E-03     28.8458E-03     5.64103E-03     5.64305E-03
            1206               1     28.0812E-03     28.9199E-03     5.35925E-03     5.29601E-03
            1207               1     28.0693E-03     29.0240E-03     5.08034E-03     5.07713E-03
            1208               1     28.3661E-03     29.1727E-03     4.83759E-03     4.70976E-03
            1209               1     28.4377E-03     29.4906E-03     4.53233E-03     4.54978E-03
            1210               1     29.1695E-03     29.9311E-03     4.33823E-03     4.17726E-03
            1211               1     29.5765E-03     30.7690E-03     4.12253E-03     4.22030E-03
            1212               1     31.4105E-03     32.1773E-03     3.95573E-03     4.03343E-03
            1213               1     34.5476E-03     36.2714E-03     3.37901E-03     3.89200E-03
            1214               1     35.8861E-03     36.6269E-03     8.36416E-03     8.86707E-03
            1215               1     30.7024E-03     31.5268E-03     8.56986E-03     8.75123E-03
            1216               1     29.8408E-03     30.6515E-03     8.04432E-03     8.23316E-03
            1217               1     28.5757E-03     29.4375E-03     8.00117E-03     8.06750E-03
            1218               1     28.1917E-03     29.0752E-03     7.46898E-03     7.54852E-03
            1219               1     27.8077E-03     28.7209E-03     7.31664E-03     7.34358E-03
            1220               1     27.6833E-03     28.6110E-03     6.87041E-03     6.89899E-03
            1221               1     27.5625E-03     28.5127E-03     6.65807E-03     6.66816E-03
            1222               1     27.5466E-03     28.4943E-03     6.27193E-03     6.27022E-03
            1223               1     27.5046E-03     28.4776E-03     6.02176E-03     6.02241E-03
            1224               1     27.5476E-03     28.4856E-03     5.67914E-03     5.64426E-03
            1225               1     27.5296E-03     28.5123E-03     5.39170E-03     5.38535E-03
            1226               1     27.6615E-03     28.5501E-03     5.08586E-03     4.99948E-03
            1227               1     27.6751E-03     28.6697E-03     4.73919E-03     4.73935E-03
            1228               1     28.0410E-03     28.8419E-03     4.47165E-03     4.31628E-03
            1229               1     28.1624E-03     29.2312E-03     4.01003E-03     4.07751E-03
            1230               1     29.1862E-03     29.9208E-03     3.77235E-03     3.59210E-03
            1231               1     29.6877E-03     30.9974E-03     3.15035E-03     3.44705E-03
            1232               1     44.2060E-03     44.0298E-03     8.66808E-03     9.43916E-03
            1233               1     34.0295E-03     34.4684E-03     10.5732E-03     10.6583E-03
            1234               1     30.6370E-03     31.3372E-03     8.52899E-03     8.68057E-03
            1235               1     29.1913E-03     30.0037E-03     8.72863E-03     8.74739E-03
            1236               1     28.1189E-03     29.0300E-03     7.87452E-03     7.93019E-03
            1237               1     27.7354E-03     28.6995E-03     7.81950E-03     7.82771E-03
            1238               1     27.3539E-03     28.3614E-03     7.27153E-03     7.29199E-03
            1239               1     27.2587E-03     28.2962E-03     7.10410E-03     7.10772E-03
            1240               1     27.1211E-03     28.1746E-03     6.66337E-03     6.66780E-03
            1241               1     27.1059E-03     28.1776E-03     6.43464E-03     6.43540E-03
            1242               1     27.0640E-03     28.1258E-03     6.04600E-03     6.03843E-03
            1243               1     27.0673E-03     28.1407E-03     5.77749E-03     5.77576E-03
            1244               1     27.0918E-03     28.1128E-03     5.42316E-03     5.39804E-03
            1245               1     27.1157E-03     28.1505E-03     5.11365E-03     5.11199E-03
            1246               1     27.2635E-03     28.1709E-03     4.78952E-03     4.73429E-03
            1247               1     27.3585E-03     28.3211E-03     4.40110E-03     4.41722E-03
            1248               1     27.8147E-03     28.5364E-03     4.11355E-03     4.01211E-03
            1249               1     28.0966E-03     29.0528E-03     3.50195E-03     3.60684E-03
            1250               1     29.3999E-03     30.0310E-03     3.27930E-03     3.13811E-03
            1251               1     30.2527E-03     28.5980E-03    -5.31336E-03    -6.60277E-03
            1252               1     28.6194E-03     28.1897E-03    -4.76206E-03    -5.08972E-03
            1253               1     29.6273E-03     29.6683E-03    -2.21622E-03    -2.38802E-03
            1254               1     30.5132E-03     30.8318E-03    -1.09741E-03    -1.16658E-03
            1255               1     31.6582E-03     32.1142E-03     569.866E-06     525.362E-06
            1256               1     32.4971E-03     33.0204E-03     1.47726E-03     1.46747E-03
            1257               1     33.4225E-03     33.9633E-03     2.71000E-03     2.70626E-03
            1258               1     34.0323E-03     34.5640E-03     3.42369E-03     3.43282E-03
            1259               1     34.7305E-03     35.2357E-03     4.37431E-03     4.38731E-03
            1260               1     35.1594E-03     35.6228E-03     4.97181E-03     4.98947E-03
            1261               1     35.6855E-03     36.0998E-03     5.75270E-03     5.77737E-03
            1262               1     36.0083E-03     36.3578E-03     6.32148E-03     6.34687E-03
            1263               1     36.4228E-03     36.6987E-03     7.03748E-03     7.08010E-03
            1264               1     36.6979E-03     36.8776E-03     7.66454E-03     7.70007E-03
            1265               1     37.0507E-03     37.1210E-03     8.41302E-03     8.48787E-03
            1266               1     37.3157E-03     37.2431E-03     9.18644E-03     9.23227E-03
            1267               1     37.6399E-03     37.4185E-03     10.0536E-03     10.1802E-03
            1268               1     37.9171E-03     37.4964E-03     11.0753E-03     11.1154E-03
            1269               1     38.2073E-03     37.6446E-03     12.1277E-03     12.3215E-03
            1270               1     26.6265E-03     29.4098E-03    -2.21898E-03    -2.77011E-03
            1271               1     31.5074E-03     31.9172E-03    -2.10142E-03    -2.89800E-03
            1272               1     31.4085E-03     31.7942E-03    -1.13268E-03    -1.46852E-03
            1273               1     32.8739E-03     33.2660E-03     305.146E-06     95.5680E-06
            1274               1     33.4152E-03     33.9060E-03     1.15999E-03     1.07119E-03
            1275               1     34.3642E-03     34.8750E-03     2.35888E-03     2.31254E-03
            1276               1     34.7947E-03     35.3460E-03     3.03422E-03     3.03321E-03
            1277               1     35.4770E-03     36.0189E-03     3.96714E-03     3.98450E-03
            1278               1     35.7680E-03     36.3089E-03     4.51229E-03     4.54669E-03
            1279               1     36.2844E-03     36.7991E-03     5.24968E-03     5.29888E-03
            1280               1     36.5056E-03     36.9993E-03     5.73790E-03     5.79392E-03
            1281               1     36.9212E-03     37.3775E-03     6.36850E-03     6.45137E-03
            1282               1     37.1260E-03     37.5505E-03     6.87671E-03     6.95575E-03
            1283               1     37.4797E-03     37.8618E-03     7.48414E-03     7.62419E-03
            1284               1     37.6932E-03     38.0307E-03     8.09458E-03     8.19873E-03
            1285               1     37.9926E-03     38.3043E-03     8.75445E-03     8.98339E-03
            1286               1     38.2063E-03     38.4552E-03     9.55829E-03     9.66960E-03
            1287               1     38.4191E-03     38.7116E-03     10.3425E-03     10.6632E-03
            1288               1     38.5800E-03     38.8017E-03     11.4601E-03     11.4786E-03
            1289               1     28.4808E-03     29.2948E-03    -1.42794E-03    -1.27555E-03
            1290               1     31.3091E-03     32.9422E-03     55.5196E-06    -152.969E-06
            1291               1     33.7515E-03     34.4752E-03     606.721E-06     199.354E-06
            1292               1     34.2740E-03     34.9497E-03     1.43541E-03     1.25461E-03
            1293               1     35.4003E-03     35.9665E-03     2.43793E-03     2.30504E-03
            1294               1     35.6813E-03     36.2896E-03     3.05296E-03     3.01143E-03
            1295               1     36.3700E-03     36.9452E-03     3.90666E-03     3.89842E-03
            1296               1     36.4906E-03     37.0918E-03     4.36760E-03     4.39401E-03
            1297               1     36.9751E-03     37.5552E-03     5.02318E-03     5.07054E-03
            1298               1     37.0457E-03     37.6367E-03     5.40524E-03     5.46643E-03
            1299               1     37.4284E-03     37.9976E-03     5.92891E-03     6.01367E-03
            1300               1     37.5132E-03     38.0962E-03     6.30203E-03     6.39055E-03
            1301               1     37.8468E-03     38.4053E-03     6.77010E-03     6.90573E-03
            1302               1     37.9672E-03     38.5572E-03     7.20540E-03     7.32113E-03
            1303               1     38.2669E-03     38.8399E-03     7.68809E-03     7.90101E-03
            1304               1     38.4148E-03     39.0427E-03     8.26964E-03     8.39729E-03
            1305               1     38.6534E-03     39.2931E-03     8.84963E-03     9.13147E-03
            1306               1     38.7767E-03     39.4950E-03     9.66895E-03     9.73957E-03
            1307               1     38.9149E-03     39.6155E-03     10.5023E-03     10.6409E-03
            1308               1     30.0603E-03     31.5298E-03    -432.110E-06    -665.761E-06
            1309               1     32.6681E-03     33.6773E-03     972.238E-06     909.284E-06
            1310               1     34.5830E-03     35.8320E-03     2.05438E-03     1.97890E-03
            1311               1     36.0786E-03     36.8610E-03     2.83313E-03     2.64889E-03
            1312               1     36.4856E-03     37.2776E-03     3.45022E-03     3.39106E-03
            1313               1     37.2527E-03     37.9076E-03     4.19987E-03     4.15804E-03
            1314               1     37.2381E-03     37.9230E-03     4.57874E-03     4.58913E-03
            1315               1     37.7011E-03     38.3383E-03     5.12929E-03     5.16226E-03
            1316               1     37.5995E-03     38.2630E-03     5.39271E-03     5.44488E-03
            1317               1     37.9331E-03     38.5752E-03     5.78867E-03     5.85924E-03
            1318               1     37.8689E-03     38.5473E-03     6.01982E-03     6.09898E-03
            1319               1     38.1554E-03     38.8143E-03     6.34054E-03     6.44644E-03
            1320               1     38.1540E-03     38.8836E-03     6.60055E-03     6.70291E-03
            1321               1     38.4315E-03     39.1339E-03     6.91032E-03     7.06786E-03
            1322               1     38.4911E-03     39.3175E-03     7.27271E-03     7.38602E-03
            1323               1     38.7559E-03     39.5484E-03     7.64590E-03     7.85676E-03
            1324               1     38.8646E-03     39.8160E-03     8.20925E-03     8.28521E-03
            1325               1     39.0663E-03     39.9572E-03     8.78362E-03     8.92858E-03
            1326               1     39.2533E-03     40.1846E-03     9.64689E-03     9.58549E-03
            1327               1     31.8394E-03     33.2556E-03     200.532E-06     297.483E-06
            1328               1     34.1464E-03     35.5157E-03     1.86222E-03     1.84459E-03
            1329               1     35.9492E-03     36.9458E-03     3.14125E-03     3.09886E-03
            1330               1     37.0075E-03     38.1255E-03     3.95975E-03     3.97091E-03
            1331               1     37.9403E-03     38.7385E-03     4.73112E-03     4.69712E-03
            1332               1     37.9172E-03     38.7477E-03     5.08947E-03     5.10631E-03
            1333               1     38.3894E-03     39.1010E-03     5.55698E-03     5.58472E-03
            1334               1     38.1181E-03     38.8566E-03     5.71108E-03     5.75527E-03
            1335               1     38.4030E-03     39.1018E-03     5.96825E-03     6.02498E-03
            1336               1     38.1776E-03     38.9166E-03     6.06087E-03     6.12486E-03
            1337               1     38.4001E-03     39.1187E-03     6.22527E-03     6.29960E-03
            1338               1     38.2643E-03     39.0607E-03     6.32065E-03     6.40037E-03
            1339               1     38.4868E-03     39.2518E-03     6.46083E-03     6.55724E-03
            1340               1     38.4324E-03     39.3450E-03     6.61263E-03     6.70108E-03
            1341               1     38.6882E-03     39.5350E-03     6.78448E-03     6.90910E-03
            1342               1     38.7263E-03     39.7934E-03     7.08550E-03     7.15253E-03
            1343               1     38.9977E-03     39.9570E-03     7.39398E-03     7.50852E-03
            1344               1     39.1929E-03     40.2950E-03     7.97672E-03     7.96158E-03
            1345               1     39.4038E-03     40.3860E-03     8.62197E-03     8.55547E-03
            1346               1     34.0714E-03     35.2956E-03     931.764E-06     1.01303E-03
            1347               1     35.7465E-03     36.9730E-03     2.78897E-03     2.83269E-03
            1348               1     37.2580E-03     38.5782E-03     4.04651E-03     4.14041E-03
            1349               1     38.3922E-03     39.3356E-03     5.25188E-03     5.30617E-03
            1350               1     38.4974E-03     39.5307E-03     5.72363E-03     5.79425E-03
            1351               1     39.0107E-03     39.8190E-03     6.23426E-03     6.29320E-03
            1352               1     38.5681E-03     39.4021E-03     6.31500E-03     6.37027E-03
            1353               1     38.8096E-03     39.5655E-03     6.44466E-03     6.50261E-03
            1354               1     38.4185E-03     39.2078E-03     6.41439E-03     6.46867E-03
            1355               1     38.5705E-03     39.3317E-03     6.41621E-03     6.47054E-03
            1356               1     38.3026E-03     39.1289E-03     6.36794E-03     6.42565E-03
            1357               1     38.4474E-03     39.2445E-03     6.34131E-03     6.39142E-03
            1358               1     38.2776E-03     39.2055E-03     6.31321E-03     6.37284E-03
            1359               1     38.4698E-03     39.3291E-03     6.30173E-03     6.34823E-03
            1360               1     38.3911E-03     39.4818E-03     6.35021E-03     6.39923E-03
            1361               1     38.6785E-03     39.6264E-03     6.40840E-03     6.45113E-03
            1362               1     38.7854E-03     39.9968E-03     6.67863E-03     6.67706E-03
            1363               1     39.1218E-03     40.1761E-03     6.95429E-03     6.97456E-03
            1364               1     39.6135E-03     40.5527E-03     7.63028E-03     7.55500E-03
            1365               1     35.9013E-03     37.3705E-03     1.82253E-03     1.80663E-03
            1366               1     37.7623E-03     39.1815E-03     3.56548E-03     3.76492E-03
            1367               1     39.0056E-03     40.0686E-03     5.46432E-03     5.60451E-03
            1368               1     39.1348E-03     40.3481E-03     6.23692E-03     6.38092E-03
            1369               1     39.6938E-03     40.5992E-03     7.05890E-03     7.20509E-03
            1370               1     38.9730E-03     39.9119E-03     7.11977E-03     7.21437E-03
            1371               1     39.1609E-03     39.9762E-03     7.16063E-03     7.24750E-03
            1372               1     38.5842E-03     39.4253E-03     7.03464E-03     7.09306E-03
            1373               1     38.6581E-03     39.4586E-03     6.87205E-03     6.92432E-03
            1374               1     38.2686E-03     39.1151E-03     6.70753E-03     6.75135E-03
            1375               1     38.3266E-03     39.1476E-03     6.51630E-03     6.54261E-03
            1376               1     38.0595E-03     38.9744E-03     6.35026E-03     6.38598E-03
            1377               1     38.1548E-03     39.0144E-03     6.17590E-03     6.17187E-03
            1378               1     37.9684E-03     39.0144E-03     6.02770E-03     6.05378E-03
            1379               1     38.1716E-03     39.0856E-03     5.89163E-03     5.85334E-03
            1380               1     38.1024E-03     39.3227E-03     5.83290E-03     5.84171E-03
            1381               1     38.5108E-03     39.4966E-03     5.78534E-03     5.74799E-03
            1382               1     38.8267E-03     40.0379E-03     6.07093E-03     6.02947E-03
            1383               1     39.2894E-03     40.4334E-03     6.32744E-03     6.39772E-03
            1384               1     38.6086E-03     40.0690E-03     2.49203E-03     2.88498E-03
            1385               1     40.1475E-03     41.2467E-03     5.19791E-03     5.32650E-03
            1386               1     40.3103E-03     41.7148E-03     6.50442E-03     6.74269E-03
            1387               1     40.8777E-03     41.8602E-03     7.99933E-03     8.27558E-03
            1388               1     39.4668E-03     40.4756E-03     8.06875E-03     8.22361E-03
            1389               1     39.5392E-03     40.4008E-03     8.04938E-03     8.19486E-03
            1390               1     38.7015E-03     39.5879E-03     7.85908E-03     7.93637E-03
            1391               1     38.6670E-03     39.5056E-03     7.52742E-03     7.59565E-03
            1392               1     38.1656E-03     39.0363E-03     7.27871E-03     7.31897E-03
            1393               1     38.1292E-03     38.9791E-03     6.92364E-03     6.94697E-03
            1394               1     37.7937E-03     38.7007E-03     6.66206E-03     6.68362E-03
            1395               1     37.7856E-03     38.6544E-03     6.33934E-03     6.31883E-03
            1396               1     37.5299E-03     38.5154E-03     6.06669E-03     6.07309E-03
            1397               1     37.5989E-03     38.4873E-03     5.78046E-03     5.70166E-03
            1398               1     37.4030E-03     38.5233E-03     5.50227E-03     5.49856E-03
            1399               1     37.6702E-03     38.5842E-03     5.25503E-03     5.12502E-03
            1400               1     37.6412E-03     38.9267E-03     5.06259E-03     5.06661E-03
            1401               1     38.3246E-03     39.2992E-03     4.87282E-03     4.83645E-03
            1402               1     39.0469E-03     40.1325E-03     5.26322E-03     5.23367E-03
            1403               1     41.6273E-03     42.6370E-03     4.05443E-03     3.94614E-03
            1404               1     42.6371E-03     44.4036E-03     6.35692E-03     6.73118E-03
            1405               1     43.3746E-03     44.3768E-03     9.22316E-03     9.69235E-03
            1406               1     40.3436E-03     41.3422E-03     9.26596E-03     9.49593E-03
            1407               1     40.1030E-03     40.9693E-03     9.06596E-03     9.28455E-03
            1408               1     38.8530E-03     39.7501E-03     8.84091E-03     8.94039E-03
            1409               1     38.6211E-03     39.4868E-03     8.30396E-03     8.39780E-03
            1410               1     38.0133E-03     38.9088E-03     8.00820E-03     8.05058E-03
            1411               1     37.8569E-03     38.7435E-03     7.48667E-03     7.51882E-03
            1412               1     37.4865E-03     38.4070E-03     7.16837E-03     7.18475E-03
            1413               1     37.3779E-03     38.2773E-03     6.70844E-03     6.69523E-03
            1414               1     37.0957E-03     38.0527E-03     6.36938E-03     6.36762E-03
            1415               1     37.0371E-03     37.9300E-03     5.96056E-03     5.88827E-03
            1416               1     36.7883E-03     37.8026E-03     5.58151E-03     5.56520E-03
            1417               1     36.8502E-03     37.7183E-03     5.20796E-03     5.05451E-03
            1418               1     36.6472E-03     37.7722E-03     4.76998E-03     4.76532E-03
            1419               1     37.0435E-03     37.8950E-03     4.41325E-03     4.21173E-03
            1420               1     37.0548E-03     38.3621E-03     3.99517E-03     4.07694E-03
            1421               1     38.3138E-03     39.2556E-03     3.58573E-03     3.65117E-03
            1422               1     46.2200E-03     48.8738E-03     5.11868E-03     5.83068E-03
            1423               1     48.6595E-03     49.4410E-03     10.9776E-03     11.7779E-03
            1424               1     42.1019E-03     42.9172E-03     11.0550E-03     11.3626E-03
            1425               1     40.9604E-03     41.7281E-03     10.1716E-03     10.4406E-03
            1426               1     39.1861E-03     40.0279E-03     9.96693E-03     10.0719E-03
            1427               1     38.5478E-03     39.4120E-03     9.11598E-03     9.22328E-03
            1428               1     37.8575E-03     38.7659E-03     8.82000E-03     8.85905E-03
            1429               1     37.5162E-03     38.4417E-03     8.12308E-03     8.16200E-03
            1430               1     37.1505E-03     38.1043E-03     7.78581E-03     7.79939E-03
            1431               1     36.9326E-03     37.8850E-03     7.20046E-03     7.20157E-03
            1432               1     36.6640E-03     37.6413E-03     6.83501E-03     6.83396E-03
            1433               1     36.5004E-03     37.4416E-03     6.32238E-03     6.28304E-03
            1434               1     36.2529E-03     37.2327E-03     5.91589E-03     5.90092E-03
            1435               1     36.1513E-03     37.0334E-03     5.44620E-03     5.34313E-03
            1436               1     35.9106E-03     36.8845E-03     4.96010E-03     4.94119E-03
            1437               1     35.9772E-03     36.7564E-03     4.51090E-03     4.31997E-03
            1438               1     35.7821E-03     36.8021E-03     3.87171E-03     3.90666E-03
            1439               1     36.3590E-03     37.0671E-03     3.40869E-03     3.17404E-03
            1440               1     36.3921E-03     37.6464E-03     2.54533E-03     2.80606E-03
            1441               1     58.8146E-03     57.7626E-03     11.7907E-03     13.0796E-03
            1442               1     46.1380E-03     46.2210E-03     14.0282E-03     14.2329E-03
            1443               1     41.8548E-03     42.3339E-03     11.1317E-03     11.3519E-03
            1444               1     39.8977E-03     40.5792E-03     11.1695E-03     11.2133E-03
            1445               1     38.4251E-03     39.2472E-03     9.84608E-03     9.92177E-03
            1446               1     37.7663E-03     38.6702E-03     9.62215E-03     9.63659E-03
            1447               1     37.1200E-03     38.0810E-03     8.74619E-03     8.77342E-03
            1448               1     36.8109E-03     37.8105E-03     8.42907E-03     8.43427E-03
            1449               1     36.4521E-03     37.4715E-03     7.73739E-03     7.74404E-03
            1450               1     36.2336E-03     37.2709E-03     7.37331E-03     7.37389E-03
            1451               1     35.9759E-03     37.0023E-03     6.77757E-03     6.76956E-03
            1452               1     35.7638E-03     36.7939E-03     6.37528E-03     6.37134E-03
            1453               1     35.5529E-03     36.5235E-03     5.82984E-03     5.80048E-03
            1454               1     35.3314E-03     36.2960E-03     5.37183E-03     5.36435E-03
            1455               1     35.1959E-03     36.0161E-03     4.84487E-03     4.77876E-03
            1456               1     34.9931E-03     35.8259E-03     4.27617E-03     4.28014E-03
            1457               1     35.0724E-03     35.6352E-03     3.74541E-03     3.62331E-03
            1458               1     34.9726E-03     35.6830E-03     2.90961E-03     2.99165E-03
            1459               1     35.7023E-03     36.0542E-03     2.37043E-03     2.19882E-03
            1460               1     41.0749E-03     40.5489E-03    -5.82631E-03    -6.76422E-03
            1461               1     37.6412E-03     38.1609E-03    -4.80445E-03    -5.01231E-03
            1462               1     38.9885E-03     39.8087E-03    -1.60456E-03    -1.70988E-03
            1463               1     39.6636E-03     40.6855E-03     119.048E-06     87.0430E-06
            1464               1     40.7482E-03     41.7869E-03     1.80817E-03     1.79987E-03
            1465               1     41.4152E-03     42.4725E-03     3.16102E-03     3.17624E-03
            1466               1     41.9386E-03     42.9299E-03     4.14012E-03     4.15458E-03
            1467               1     42.3302E-03     43.2933E-03     5.06615E-03     5.08788E-03
            1468               1     42.5168E-03     43.4061E-03     5.68684E-03     5.70595E-03
            1469               1     42.6795E-03     43.5353E-03     6.32205E-03     6.33980E-03
            1470               1     42.7020E-03     43.4874E-03     6.78675E-03     6.80922E-03
            1471               1     42.7188E-03     43.4726E-03     7.28681E-03     7.30366E-03
            1472               1     42.6727E-03     43.3401E-03     7.72430E-03     7.75759E-03
            1473               1     42.6171E-03     43.2434E-03     8.22006E-03     8.24803E-03
            1474               1     42.5765E-03     43.0611E-03     8.73726E-03     8.79799E-03
            1475               1     42.5154E-03     42.9210E-03     9.36275E-03     9.42096E-03
            1476               1     42.5510E-03     42.7097E-03     10.0612E-03     10.1799E-03
            1477               1     42.5586E-03     42.5719E-03     11.0103E-03     11.0862E-03
            1478               1     42.7076E-03     42.3957E-03     11.9553E-03     12.1647E-03
            1479               1     37.3570E-03     39.8205E-03    -683.600E-06    -1.30056E-03
            1480               1     42.7684E-03     43.5506E-03    -1.66270E-03    -2.16453E-03
            1481               1     41.3710E-03     42.2771E-03     65.3361E-06    -183.430E-06
            1482               1     42.8718E-03     43.7896E-03     1.47718E-03     1.40007E-03
            1483               1     42.9016E-03     43.8524E-03     2.89836E-03     2.88667E-03
            1484               1     43.3149E-03     44.2659E-03     3.82553E-03     3.84635E-03
            1485               1     43.4419E-03     44.3884E-03     4.76955E-03     4.82113E-03
            1486               1     43.4353E-03     44.3457E-03     5.35172E-03     5.39740E-03
            1487               1     43.4872E-03     44.3780E-03     5.95923E-03     6.01054E-03
            1488               1     43.3700E-03     44.2213E-03     6.36804E-03     6.42247E-03
            1489               1     43.3493E-03     44.1714E-03     6.81088E-03     6.85310E-03
            1490               1     43.2109E-03     44.0000E-03     7.15016E-03     7.22222E-03
            1491               1     43.1533E-03     43.9061E-03     7.54440E-03     7.59277E-03
            1492               1     43.0344E-03     43.7613E-03     7.89584E-03     8.01142E-03
            1493               1     42.9730E-03     43.6625E-03     8.33517E-03     8.42724E-03
            1494               1     42.9266E-03     43.5888E-03     8.79134E-03     8.99175E-03
            1495               1     42.8570E-03     43.5207E-03     9.39758E-03     9.56820E-03
            1496               1     42.9633E-03     43.5583E-03     10.0664E-03     10.3793E-03
            1497               1     42.8269E-03     43.5398E-03     11.0663E-03     11.1870E-03
            1498               1     38.9761E-03     40.1968E-03     132.088E-06     331.516E-06
            1499               1     42.6267E-03     44.2681E-03     2.19842E-03     1.84680E-03
            1500               1     45.0236E-03     46.0898E-03     2.02262E-03     1.85374E-03
            1501               1     44.7114E-03     45.6544E-03     3.65010E-03     3.55372E-03
            1502               1     45.0777E-03     46.0185E-03     4.18405E-03     4.18070E-03
            1503               1     44.9043E-03     45.8064E-03     5.15546E-03     5.20437E-03
            1504               1     44.6298E-03     45.5243E-03     5.52242E-03     5.57396E-03
            1505               1     44.4966E-03     45.3830E-03     6.02805E-03     6.09931E-03
            1506               1     44.1747E-03     45.0463E-03     6.29529E-03     6.36275E-03
            1507               1     44.0419E-03     44.8992E-03     6.61516E-03     6.67696E-03
            1508               1     43.7632E-03     44.6132E-03     6.82849E-03     6.91147E-03
            1509               1     43.6348E-03     44.4603E-03     7.08832E-03     7.14264E-03
            1510               1     43.4026E-03     44.2452E-03     7.28440E-03     7.39954E-03
            1511               1     43.2922E-03     44.1114E-03     7.54726E-03     7.61792E-03
            1512               1     43.1198E-03     43.9995E-03     7.78144E-03     7.95603E-03
            1513               1     43.0239E-03     43.9258E-03     8.10105E-03     8.23383E-03
            1514               1     42.9965E-03     43.9631E-03     8.49397E-03     8.72945E-03
            1515               1     42.8204E-03     43.9995E-03     8.97316E-03     9.17942E-03
            1516               1     43.1234E-03     44.0661E-03     9.74324E-03     9.84422E-03
            1517               1     40.9809E-03     42.6446E-03     1.84487E-03     1.38063E-03
            1518               1     44.4379E-03     45.8582E-03     3.07811E-03     3.22887E-03
            1519               1     46.3830E-03     47.5859E-03     5.21342E-03     5.11135E-03
            1520               1     46.7262E-03     47.8066E-03     5.17875E-03     5.18122E-03
            1521               1     46.6116E-03     47.5161E-03     6.33382E-03     6.38663E-03
            1522               1     45.8995E-03     46.7860E-03     6.29960E-03     6.34926E-03
            1523               1     45.6259E-03     46.4865E-03     6.66057E-03     6.73923E-03
            1524               1     45.0370E-03     45.8992E-03     6.67938E-03     6.74521E-03
            1525               1     44.7716E-03     45.6320E-03     6.81428E-03     6.88656E-03
            1526               1     44.3276E-03     45.1960E-03     6.85552E-03     6.93515E-03
            1527               1     44.0935E-03     44.9511E-03     6.94471E-03     7.00278E-03
            1528               1     43.7362E-03     44.6222E-03     6.98492E-03     7.08472E-03
            1529               1     43.5382E-03     44.4055E-03     7.07651E-03     7.12355E-03
            1530               1     43.2342E-03     44.1784E-03     7.11782E-03     7.24726E-03
            1531               1     43.0765E-03     44.0198E-03     7.22409E-03     7.27787E-03
            1532               1     42.8430E-03     43.9319E-03     7.32210E-03     7.47594E-03
            1533               1     42.7176E-03     43.9003E-03     7.44986E-03     7.55945E-03
            1534               1     42.7372E-03     43.9643E-03     7.82404E-03     7.88224E-03
            1535               1     42.5431E-03     44.1014E-03     8.05383E-03     8.27243E-03
            1536               1     43.7696E-03     45.5447E-03     2.45879E-03     2.90559E-03
            1537               1     46.9175E-03     48.1148E-03     5.64180E-03     5.49907E-03
            1538               1     47.7143E-03     49.1078E-03     6.39176E-03     6.56871E-03
            1539               1     48.5472E-03     49.5363E-03     8.15343E-03     8.29089E-03
            1540               1     46.9857E-03     47.8997E-03     7.68127E-03     7.76296E-03
            1541               1     46.7616E-03     47.5986E-03     7.86337E-03     7.95704E-03
            1542               1     45.8068E-03     46.6484E-03     7.55316E-03     7.61301E-03
            1543               1     45.4506E-03     46.2923E-03     7.44498E-03     7.51930E-03
            1544               1     44.8351E-03     45.6960E-03     7.26734E-03     7.33402E-03
            1545               1     44.4982E-03     45.3617E-03     7.14874E-03     7.20817E-03
            1546               1     44.0281E-03     44.9225E-03     7.02433E-03     7.10574E-03
            1547               1     43.7302E-03     44.6127E-03     6.93820E-03     6.97670E-03
            1548               1     43.3187E-03     44.2640E-03     6.81906E-03     6.91293E-03
            1549               1     43.0632E-03     43.9886E-03     6.75244E-03     6.75987E-03
            1550               1     42.6736E-03     43.7294E-03     6.62543E-03     6.71612E-03
            1551               1     42.4831E-03     43.5390E-03     6.54691E-03     6.52724E-03
            1552               1     42.1461E-03     43.4194E-03     6.48097E-03     6.51388E-03
            1553               1     42.1140E-03     43.4412E-03     6.33416E-03     6.39600E-03
            1554               1     42.1733E-03     43.5162E-03     6.69499E-03     6.51007E-03
            1555               1     47.3477E-03     48.3972E-03     4.50965E-03     4.17307E-03
            1556               1     49.3699E-03     51.3182E-03     6.78153E-03     7.17363E-03
            1557               1     51.0625E-03     52.0469E-03     10.1147E-03     10.4554E-03
            1558               1     47.8277E-03     48.7596E-03     9.59254E-03     9.78187E-03
            1559               1     47.7878E-03     48.5934E-03     9.47058E-03     9.61166E-03
            1560               1     46.3420E-03     47.1537E-03     8.86935E-03     8.93313E-03
            1561               1     45.9557E-03     46.7648E-03     8.44468E-03     8.51904E-03
            1562               1     45.1830E-03     46.0212E-03     8.03555E-03     8.08329E-03
            1563               1     44.7765E-03     45.6282E-03     7.67568E-03     7.73025E-03
            1564               1     44.2289E-03     45.1158E-03     7.38137E-03     7.44078E-03
            1565               1     43.8480E-03     44.7349E-03     7.10846E-03     7.14570E-03
            1566               1     43.3675E-03     44.3038E-03     6.85233E-03     6.92141E-03
            1567               1     43.0142E-03     43.9274E-03     6.62982E-03     6.63154E-03
            1568               1     42.5351E-03     43.5323E-03     6.35645E-03     6.41464E-03
            1569               1     42.2221E-03     43.1730E-03     6.13659E-03     6.07110E-03
            1570               1     41.7085E-03     42.8229E-03     5.81262E-03     5.81921E-03
            1571               1     41.5291E-03     42.5694E-03     5.53030E-03     5.39541E-03
            1572               1     40.9989E-03     42.3756E-03     5.19186E-03     5.11769E-03
            1573               1     41.3039E-03     42.5225E-03     4.71914E-03     4.76928E-03
            1574               1     52.3732E-03     55.4161E-03     5.63941E-03     6.42128E-03
            1575               1     56.2173E-03     56.9524E-03     12.3776E-03     13.1358E-03
            1576               1     49.1837E-03     49.9795E-03     12.0754E-03     12.3921E-03
            1577               1     48.5906E-03     49.2662E-03     11.1465E-03     11.3449E-03
            1578               1     46.6496E-03     47.3976E-03     10.4986E-03     10.5771E-03
            1579               1     46.1430E-03     46.9005E-03     9.63731E-03     9.71053E-03
            1580               1     45.2852E-03     46.0893E-03     9.05969E-03     9.08769E-03
            1581               1     44.8327E-03     45.6583E-03     8.43214E-03     8.47385E-03
            1582               1     44.2711E-03     45.1396E-03     7.98391E-03     8.01678E-03
            1583               1     43.8434E-03     44.7251E-03     7.52308E-03     7.55385E-03
            1584               1     43.3460E-03     44.2755E-03     7.14962E-03     7.19358E-03
            1585               1     42.9242E-03     43.8443E-03     6.78290E-03     6.79366E-03
            1586               1     42.4097E-03     43.3883E-03     6.41707E-03     6.45847E-03
            1587               1     41.9897E-03     42.9159E-03     6.07947E-03     6.04031E-03
            1588               1     41.4163E-03     42.4204E-03     5.65213E-03     5.65854E-03
            1589               1     41.0381E-03     41.9186E-03     5.28214E-03     5.14522E-03
            1590               1     40.3673E-03     41.4073E-03     4.70501E-03     4.64851E-03
            1591               1     40.2306E-03     41.0365E-03     4.22932E-03     3.98849E-03
            1592               1     39.4593E-03     40.7280E-03     3.37142E-03     3.39077E-03
            1593               1     66.7655E-03     65.5626E-03     13.4135E-03     14.8200E-03
            1594               1     53.0502E-03     53.0939E-03     15.8005E-03     16.0242E-03
            1595               1     49.0290E-03     49.4204E-03     12.5526E-03     12.7509E-03
            1596               1     47.0583E-03     47.6593E-03     12.2290E-03     12.2670E-03
            1597               1     45.8755E-03     46.5608E-03     10.7626E-03     10.8180E-03
            1598               1     45.1337E-03     45.9006E-03     10.1624E-03     10.1691E-03
            1599               1     44.5692E-03     45.3598E-03     9.26058E-03     9.28188E-03
            1600               1     44.0914E-03     44.9357E-03     8.70305E-03     8.71023E-03
            1601               1     43.6515E-03     44.5116E-03     8.07132E-03     8.08475E-03
            1602               1     43.2043E-03     44.1193E-03     7.60427E-03     7.61767E-03
            1603               1     42.7626E-03     43.6866E-03     7.11517E-03     7.12378E-03
            1604               1     42.2658E-03     43.2514E-03     6.69246E-03     6.70834E-03
            1605               1     41.7858E-03     42.7472E-03     6.25928E-03     6.25472E-03
            1606               1     41.2043E-03     42.2233E-03     5.80826E-03     5.81645E-03
            1607               1     40.6929E-03     41.5996E-03     5.35901E-03     5.32071E-03
            1608               1     40.0141E-03     40.9512E-03     4.78406E-03     4.77035E-03
            1609               1     39.5487E-03     40.1999E-03     4.25906E-03     4.15166E-03
            1610               1     38.7827E-03     39.4728E-03     3.38176E-03     3.37439E-03
            1611               1     38.6320E-03     38.8499E-03     2.73858E-03     2.55159E-03
            1612               1     564.839E-06     658.294E-06     323.263E-06     326.031E-06
            1613               1     602.880E-06     804.306E-06     149.594E-06     142.796E-06
            1614               1     730.520E-06     720.188E-06     400.595E-06     393.931E-06
            1615               1     264.415E-06     300.655E-06     65.7290E-06     114.797E-06
            1616               1     638.335E-06     565.419E-06     303.921E-06     310.996E-06
            1617               1     227.946E-06     356.386E-06     120.660E-06     120.954E-06
            1618               1     11.1117E-03     11.6146E-03     6.35501E-03     6.67976E-03
            1619               1     14.8757E-03     16.5479E-03     8.01420E-03     8.38235E-03
            1620               1     10.7155E-03     11.0514E-03     6.16329E-03     6.36863E-03
            1621               1     16.9241E-03     16.2918E-03     9.59065E-03     9.28565E-03
            1622               1     12.6266E-03     12.3134E-03     7.17034E-03     6.93827E-03
            1623               1     17.0473E-03     16.5463E-03     9.80240E-03     9.53021E-03
            1624               1     13.4306E-03     12.9748E-03     7.22236E-03     6.97321E-03
            1625               1     17.4024E-03     17.2586E-03     9.79502E-03     9.61920E-03
            1626               1     13.6736E-03     13.6646E-03     6.93493E-03     6.76471E-03
            1627               1     18.2692E-03     17.8310E-03     9.56623E-03     9.40369E-03
            1628               1     14.4085E-03     13.9767E-03     6.48058E-03     6.21168E-03
            1629               1     18.3940E-03     18.7645E-03     8.96142E-03     8.81696E-03
            1630               1     13.2237E-03     14.0376E-03     4.90815E-03     5.14442E-03
            1631               1     20.1691E-03     19.0880E-03     8.13518E-03     7.92538E-03
            1632               1     12.0791E-03     14.0619E-03     4.73921E-03     5.12910E-03
            1633               1     19.0853E-03     22.0771E-03     6.06878E-03     6.61803E-03
            1634               1     19.6905E-03     19.0771E-03     9.14183E-03     9.34104E-03
            1635               1     19.6235E-03     19.3237E-03     10.7131E-03     10.8637E-03
            1636               1     19.0645E-03     19.1820E-03     8.62864E-03     8.82219E-03
            1637               1     21.9976E-03     21.7268E-03     11.7022E-03     11.3299E-03
            1638               1     20.5884E-03     20.7553E-03     9.09423E-03     8.93427E-03
            1639               1     23.1036E-03     22.5717E-03     11.2973E-03     10.9122E-03
            1640               1     21.7639E-03     21.6705E-03     8.79432E-03     8.55128E-03
            1641               1     23.7364E-03     23.8004E-03     10.8616E-03     10.6962E-03
            1642               1     22.3375E-03     22.6887E-03     8.33382E-03     8.23384E-03
            1643               1     24.8626E-03     24.6879E-03     10.3308E-03     10.1627E-03
            1644               1     23.4221E-03     23.4215E-03     7.83777E-03     7.63672E-03
            1645               1     25.3389E-03     25.8096E-03     9.68550E-03     9.65746E-03
            1646               1     23.5305E-03     24.2470E-03     6.84829E-03     6.90686E-03
            1647               1     26.9167E-03     26.7319E-03     9.03657E-03     9.02604E-03
            1648               1     24.4354E-03     24.4811E-03     5.98924E-03     5.82982E-03
            1649               1     26.9497E-03     28.2450E-03     7.80690E-03     7.88520E-03
            1650               1     23.6695E-03     24.5923E-03     3.94929E-03     4.26546E-03
            1651               1     29.0734E-03     27.8882E-03     6.41312E-03     6.37644E-03
            1652               1     21.4140E-03     23.2889E-03     3.41110E-03     3.84677E-03
            1653               1     28.0352E-03     31.1538E-03     3.99385E-03     4.71226E-03
            1654               1     29.9881E-03     29.1115E-03     11.6708E-03     11.7169E-03
            1655               1     29.3291E-03     28.4623E-03     13.2621E-03     13.2003E-03
            1656               1     29.7400E-03     29.9604E-03     10.8880E-03     11.0622E-03
            1657               1     31.3058E-03     30.9281E-03     13.5535E-03     13.0878E-03
            1658               1     30.7984E-03     31.1673E-03     10.7064E-03     10.5170E-03
            1659               1     32.0402E-03     32.0436E-03     12.5239E-03     12.0571E-03
            1660               1     31.5288E-03     31.9721E-03     9.99629E-03     9.77137E-03
            1661               1     32.6556E-03     32.6069E-03     11.5477E-03     11.2930E-03
            1662               1     32.3047E-03     32.6488E-03     9.26955E-03     9.09345E-03
            1663               1     33.1069E-03     33.5170E-03     10.7128E-03     10.5670E-03
            1664               1     32.5717E-03     33.2983E-03     8.35352E-03     8.31292E-03
            1665               1     34.0813E-03     34.2177E-03     9.88698E-03     9.84044E-03
            1666               1     33.3782E-03     33.7649E-03     7.55229E-03     7.47965E-03
            1667               1     34.3050E-03     35.1622E-03     8.90269E-03     8.95151E-03
            1668               1     33.2263E-03     34.3440E-03     6.17454E-03     6.36554E-03
            1669               1     35.6932E-03     35.6858E-03     7.93580E-03     8.06504E-03
            1670               1     33.7771E-03     34.1745E-03     5.03045E-03     4.98608E-03
            1671               1     35.3636E-03     37.1550E-03     6.25357E-03     6.50622E-03
            1672               1     32.9563E-03     33.9358E-03     2.70906E-03     3.04007E-03
            1673               1     37.0851E-03     35.9353E-03     4.40678E-03     4.55114E-03
            1674               1     30.2113E-03     31.6841E-03     1.87245E-03     2.31779E-03
            1675               1     35.7370E-03     38.5867E-03     1.77818E-03     2.61448E-03
            1676               1     38.5097E-03     37.6949E-03     13.6046E-03     13.5328E-03
            1677               1     38.2320E-03     37.4807E-03     15.1426E-03     14.9075E-03
            1678               1     38.6050E-03     38.9469E-03     12.5501E-03     12.6763E-03
            1679               1     39.8019E-03     39.2717E-03     14.8197E-03     14.3089E-03
            1680               1     39.1588E-03     39.7761E-03     11.7494E-03     11.5910E-03
            1681               1     39.8070E-03     40.2883E-03     13.1995E-03     12.6463E-03
            1682               1     39.4848E-03     40.2535E-03     10.6721E-03     10.4003E-03
            1683               1     40.0830E-03     40.0908E-03     11.7153E-03     11.4319E-03
            1684               1     39.9141E-03     40.5002E-03     9.52457E-03     9.38902E-03
            1685               1     39.9317E-03     40.6421E-03     10.5425E-03     10.3862E-03
            1686               1     39.7675E-03     40.7861E-03     8.32678E-03     8.30808E-03
            1687               1     40.5835E-03     40.8513E-03     9.39944E-03     9.38494E-03
            1688               1     40.2321E-03     40.8725E-03     7.22696E-03     7.23235E-03
            1689               1     40.3026E-03     41.3959E-03     8.12791E-03     8.22918E-03
            1690               1     39.6996E-03     41.0795E-03     5.59028E-03     5.85890E-03
            1691               1     41.3200E-03     41.4579E-03     6.88920E-03     7.11408E-03
            1692               1     39.8221E-03     40.4933E-03     4.21195E-03     4.26001E-03
            1693               1     40.5367E-03     42.5503E-03     4.86895E-03     5.26359E-03
            1694               1     38.7944E-03     39.8249E-03     1.79269E-03     2.10465E-03
            1695               1     41.6458E-03     40.6747E-03     2.72101E-03     3.03337E-03
            1696               1     35.9857E-03     37.0090E-03     700.183E-06     1.10903E-03
            1697               1     39.9637E-03     42.3540E-03     45.8808E-06     934.069E-06
            1698               1     42.9332E-03     42.4255E-03     13.6422E-03     13.5367E-03
            1699               1     42.8589E-03     42.4212E-03     15.0711E-03     14.7240E-03
            1700               1     43.2136E-03     43.7140E-03     12.1535E-03     12.2425E-03
            1701               1     43.9411E-03     43.5197E-03     14.0984E-03     13.6636E-03
            1702               1     42.8996E-03     44.1175E-03     10.5329E-03     10.6288E-03
            1703               1     43.4685E-03     44.3177E-03     11.7746E-03     11.2130E-03
            1704               1     42.9404E-03     43.9796E-03     8.94834E-03     8.66125E-03
            1705               1     42.8437E-03     43.5270E-03     9.48116E-03     9.38942E-03
            1706               1     42.1286E-03     43.6713E-03     6.73001E-03     6.98540E-03
            1707               1     42.7123E-03     43.2531E-03     7.58799E-03     7.60488E-03
            1708               1     41.6226E-03     42.6677E-03     5.00309E-03     4.89556E-03
            1709               1     41.4820E-03     43.3913E-03     5.05788E-03     5.48786E-03
            1710               1     40.3929E-03     41.5331E-03     2.49123E-03     2.72613E-03
            1711               1     41.4631E-03     40.9666E-03     2.57296E-03     2.94509E-03
            1712               1     37.8388E-03     38.4869E-03     1.02306E-03     1.27955E-03
            1713               1     39.4356E-03     41.2755E-03    -30.7109E-06     838.348E-06
            1714               1     1.17670E-03     1.15851E-03    -678.945E-06    -667.276E-06
            1715               1     1.21351E-03     1.17511E-03    -700.218E-06    -678.258E-06
            1716               1     1.17386E-03     1.17080E-03    -677.523E-06    -675.461E-06
            1717               1     1.07697E-03     1.07328E-03    -618.655E-06    -608.743E-06
            1718               1     1.11986E-03     1.07802E-03    -643.207E-06    -620.766E-06
            1719               1     1.07700E-03     1.07154E-03    -619.607E-06    -618.628E-06
            1720               1     894.951E-06     926.940E-06    -509.298E-06    -500.279E-06
            1721               1     927.186E-06     886.941E-06    -524.627E-06    -506.457E-06
            1722               1     887.069E-06     879.090E-06    -509.092E-06    -504.089E-06
            1723               1     660.599E-06     732.292E-06    -364.769E-06    -350.594E-06
            1724               1     677.449E-06     628.815E-06    -364.741E-06    -351.946E-06
            1725               1     639.135E-06     626.996E-06    -356.051E-06    -361.330E-06
            1726               1     303.617E-06     534.787E-06    -125.538E-06    -122.648E-06
            1727               1     488.253E-06     404.972E-06    -228.966E-06    -207.243E-06
            1728               1     319.111E-06     319.387E-06    -143.494E-06    -139.079E-06
            1729               1     715.053E-06     938.342E-06     218.975E-06     215.288E-06
            1730               1     610.961E-06     532.767E-06     316.148E-06     284.996E-06
            1731               1     318.676E-06     465.603E-06     150.487E-06     175.550E-06
            2140               1     602.880E-06     804.306E-06     149.594E-06     142.796E-06
            2141               1     564.839E-06     658.294E-06     323.263E-06     326.031E-06
            2142               1     264.415E-06     300.655E-06     65.7290E-06     114.797E-06
            2143               1     730.520E-06     720.188E-06     400.595E-06     393.931E-06
            2144               1     227.946E-06     356.386E-06     120.660E-06     120.954E-06
            2145               1     638.335E-06     565.419E-06     303.921E-06     310.996E-06
            2146               1     45.7403E-03     47.7669E-03    -26.3501E-03    -25.4532E-03
            2147               1     47.4784E-03     45.2562E-03    -27.2485E-03    -25.9740E-03
            2148               1     46.3625E-03     47.6398E-03    -26.0554E-03    -26.3445E-03
            2149               1     57.5772E-03     48.4628E-03    -27.3566E-03    -25.9941E-03
            2150               1     51.1892E-03     60.5548E-03    -26.2801E-03    -25.0405E-03
            2151               1     55.4121E-03     46.2510E-03    -25.0452E-03    -24.3029E-03
            2152               1     47.5756E-03     57.8346E-03    -21.6692E-03    -20.6312E-03
            2153               1     21.2916E-03     29.3623E-03    -11.9852E-03    -11.3829E-03
            2154               1     22.1678E-03     20.3226E-03    -12.2710E-03    -11.2932E-03
            2155               1     25.4958E-03     26.8414E-03    -12.5946E-03    -11.9723E-03
            2156               1     45.0019E-03     29.5768E-03    -12.3087E-03    -11.5233E-03
            2157               1     35.2322E-03     54.6292E-03    -11.7550E-03    -11.0175E-03
            2158               1     49.4583E-03     32.2562E-03    -10.7995E-03    -10.0434E-03
            2159               1     41.8188E-03     59.9519E-03    -7.32483E-03    -6.69032E-03
            2160               1     8.76453E-03     26.1363E-03     4.58403E-03     5.37119E-03
            2161               1     10.3968E-03     10.5825E-03     4.18670E-03     4.94258E-03
            2162               1     18.2204E-03     21.4224E-03     5.76709E-03     5.42251E-03
            2163               1     46.4497E-03     26.5595E-03     3.76182E-03     4.74714E-03
            2164               1     32.6494E-03     57.9963E-03     4.32135E-03     5.35540E-03
            2165               1     56.0070E-03     36.8877E-03     5.81290E-03     6.23766E-03
            2166               1     49.5646E-03     70.8352E-03     7.86887E-03     8.63874E-03
            2167               1     40.0315E-03     48.8440E-03     22.9480E-03     23.9232E-03
            2168               1     41.9164E-03     42.1897E-03     23.8905E-03     23.7157E-03
            2169               1     42.3022E-03     41.8810E-03     22.5674E-03     21.0244E-03
            2170               1     62.9958E-03     47.1817E-03     23.4130E-03     23.9346E-03
            2171               1     52.5483E-03     76.6572E-03     22.6882E-03     24.7570E-03
            2172               1     73.4041E-03     57.9910E-03     24.0898E-03     24.3879E-03
            2173               1     71.5164E-03     89.2580E-03     25.8504E-03     26.0453E-03
            2174               1     76.9382E-03     79.7523E-03     44.1658E-03     43.2636E-03
            2175               1     71.5750E-03     72.3878E-03     40.6935E-03     41.5959E-03
            2176               1     78.0391E-03     83.5334E-03     44.1874E-03     46.6112E-03
            2177               1     91.6223E-03     80.8969E-03     41.9559E-03     42.5850E-03
            2178               1     88.2007E-03     102.193E-03     45.9790E-03     44.9027E-03
            2179               1     94.9714E-03     82.9733E-03     38.1763E-03     38.6111E-03
            2180               1     86.5266E-03     101.461E-03     38.9632E-03     39.2175E-03
            2181               1     114.504E-03     119.686E-03     63.8590E-03     63.9544E-03
            2182               1     125.024E-03     122.561E-03     71.6606E-03     70.6845E-03
            2183               1     114.149E-03     122.330E-03     65.2484E-03     69.7277E-03
            2184               1     140.279E-03     132.108E-03     74.6794E-03     73.2298E-03
            2185               1     135.651E-03     144.155E-03     69.4006E-03     67.6283E-03
            2186               1     125.733E-03     118.536E-03     66.0162E-03     65.4592E-03
            2187               1     130.786E-03     142.521E-03     63.4192E-03     63.8945E-03
            2188               1     128.212E-03     135.580E-03     62.9568E-03     63.0858E-03
            2189               1     135.311E-03     141.868E-03     74.2007E-03     74.7949E-03
            2190               1     116.845E-03     115.281E-03     61.0647E-03     62.8681E-03
            2191               1     145.801E-03     140.859E-03     75.4432E-03     75.6850E-03
            2192               1     116.537E-03     122.053E-03     59.2833E-03     58.9722E-03
            2193               1     125.688E-03     125.244E-03     71.7951E-03     70.1666E-03
            2194               1     104.730E-03     106.397E-03     55.6505E-03     57.7765E-03
            2195               1     127.888E-03     128.635E-03     72.4421E-03     72.8077E-03
            2196               1     91.4126E-03     92.5874E-03     51.9121E-03     52.5047E-03
            2197               1     117.704E-03     125.714E-03     67.3423E-03     72.0108E-03
            2198               1     94.2757E-03     97.8402E-03     54.2823E-03     56.3692E-03
            2199               1     123.331E-03     124.042E-03     71.0868E-03     71.4610E-03
            2200               1     100.824E-03     104.005E-03     56.6646E-03     56.9467E-03
            2201               1     121.161E-03     118.805E-03     69.7211E-03     68.4515E-03
            2202               1     601.998E-06     684.620E-06     343.289E-06     350.027E-06
            2203               1     591.489E-06     676.012E-06     338.307E-06     339.000E-06
            2204               1     579.834E-06     668.564E-06     332.376E-06     339.487E-06
            2205               1     582.955E-06     664.483E-06     335.621E-06     336.630E-06
            2206               1     576.815E-06     661.910E-06     332.552E-06     338.676E-06
            2207               1     579.537E-06     657.797E-06     334.509E-06     336.711E-06
            2208               1     576.872E-06     655.704E-06     332.974E-06     338.000E-06
            2209               1     579.110E-06     652.284E-06     333.932E-06     337.052E-06
            2210               1     578.998E-06     649.892E-06     333.318E-06     337.607E-06
            2211               1     581.101E-06     647.187E-06     333.612E-06     337.318E-06
            2212               1     582.889E-06     644.320E-06     333.549E-06     337.368E-06
            2213               1     585.255E-06     642.339E-06     333.415E-06     337.504E-06
            2214               1     588.496E-06     638.956E-06     333.702E-06     337.217E-06
            2215               1     591.527E-06     637.696E-06     333.325E-06     337.620E-06
            2216               1     595.646E-06     633.932E-06     333.726E-06     337.182E-06
            2217               1     599.711E-06     632.244E-06     333.199E-06     337.212E-06
            2218               1     605.463E-06     631.429E-06     334.088E-06     338.718E-06
            2219               1     620.558E-06     645.570E-06     342.920E-06     344.653E-06
            2220               1     553.902E-06     567.947E-06     291.005E-06     296.911E-06
            2221               1     623.665E-06     638.666E-06     339.683E-06     347.677E-06
            2222               1     607.306E-06     630.452E-06     331.129E-06     344.613E-06
            2223               1     617.083E-06     618.583E-06     339.664E-06     339.925E-06
            2224               1     602.136E-06     627.520E-06     332.534E-06     347.233E-06
            2225               1     609.285E-06     613.513E-06     338.849E-06     340.797E-06
            2226               1     597.933E-06     618.985E-06     333.807E-06     345.838E-06
            2227               1     601.296E-06     609.986E-06     337.493E-06     342.156E-06
            2228               1     594.520E-06     611.607E-06     334.999E-06     344.650E-06
            2229               1     594.706E-06     606.644E-06     336.517E-06     343.132E-06
            2230               1     591.295E-06     605.712E-06     335.782E-06     343.867E-06
            2231               1     589.518E-06     603.561E-06     335.885E-06     343.763E-06
            2232               1     588.491E-06     601.088E-06     336.299E-06     343.350E-06
            2233               1     585.551E-06     600.948E-06     335.471E-06     344.173E-06
            2234               1     586.130E-06     597.744E-06     336.564E-06     343.089E-06
            2235               1     583.317E-06     598.591E-06     335.560E-06     344.230E-06
            2236               1     582.923E-06     596.394E-06     335.830E-06     343.482E-06
            2237               1     580.762E-06     590.358E-06     334.939E-06     340.402E-06
            2238               1     591.420E-06     616.820E-06     341.336E-06     355.960E-06
            2239               1     698.276E-06     684.451E-06     403.148E-06     395.121E-06
            2240               1     686.862E-06     618.908E-06     345.514E-06     350.544E-06
            2241               1     675.726E-06     596.633E-06     340.636E-06     341.398E-06
            2242               1     666.096E-06     603.867E-06     339.137E-06     346.178E-06
            2243               1     671.596E-06     596.837E-06     342.385E-06     343.523E-06
            2244               1     663.024E-06     601.103E-06     340.450E-06     346.502E-06
            2245               1     664.843E-06     597.017E-06     342.348E-06     344.583E-06
            2246               1     658.897E-06     599.541E-06     341.084E-06     346.093E-06
            2247               1     658.431E-06     598.357E-06     342.019E-06     345.149E-06
            2248               1     654.391E-06     600.229E-06     341.472E-06     345.754E-06
            2249               1     652.628E-06     601.167E-06     341.756E-06     345.466E-06
            2250               1     649.672E-06     603.011E-06     341.709E-06     345.526E-06
            2251               1     647.304E-06     605.647E-06     341.570E-06     345.661E-06
            2252               1     644.903E-06     607.719E-06     341.863E-06     345.371E-06
            2253               1     642.410E-06     611.852E-06     341.471E-06     345.771E-06
            2254               1     639.996E-06     614.397E-06     341.843E-06     345.343E-06
            2255               1     637.816E-06     618.764E-06     341.316E-06     345.301E-06
            2256               1     636.543E-06     624.499E-06     342.382E-06     346.530E-06
            2257               1     642.571E-06     645.465E-06     350.535E-06     352.831E-06
            2258               1     567.124E-06     578.968E-06     296.425E-06     306.834E-06
            2259               1     129.218E-03     136.555E-03     70.4572E-03     71.3136E-03
            2260               1     128.674E-03     135.482E-03     71.5043E-03     71.8676E-03
            2261               1     126.623E-03     133.900E-03     71.0159E-03     71.8693E-03
            2262               1     125.749E-03     132.307E-03     71.2636E-03     71.7222E-03
            2263               1     124.558E-03     131.129E-03     71.1066E-03     71.8475E-03
            2264               1     123.995E-03     129.799E-03     71.2022E-03     71.7582E-03
            2265               1     123.442E-03     128.775E-03     71.1449E-03     71.8134E-03
            2266               1     123.293E-03     127.746E-03     71.1772E-03     71.7815E-03
            2267               1     123.316E-03     126.911E-03     71.1594E-03     71.7991E-03
            2268               1     123.644E-03     126.152E-03     71.1703E-03     71.7885E-03
            2269               1     124.193E-03     125.553E-03     71.1607E-03     71.7977E-03
            2270               1     125.030E-03     125.043E-03     71.1752E-03     71.7870E-03
            2271               1     126.058E-03     124.711E-03     71.1520E-03     71.8036E-03
            2272               1     127.440E-03     124.471E-03     71.2106E-03     71.7998E-03
            2273               1     128.855E-03     124.348E-03     71.1079E-03     71.7894E-03
            2274               1     131.192E-03     124.967E-03     71.5804E-03     72.1357E-03
            2275               1     132.238E-03     123.712E-03     70.5535E-03     71.2651E-03
            2276               1     141.444E-03     134.024E-03     76.7819E-03     77.3259E-03
            2277               1     134.874E-03     113.802E-03     61.1539E-03     61.8338E-03
            2278               1     137.041E-03     132.468E-03     72.2051E-03     72.8364E-03
            2279               1     137.199E-03     133.052E-03     73.0922E-03     73.8558E-03
            2280               1     135.626E-03     130.858E-03     73.0382E-03     73.5080E-03
            2281               1     134.032E-03     130.090E-03     72.9564E-03     73.7142E-03
            2282               1     132.954E-03     128.886E-03     73.0558E-03     73.5896E-03
            2283               1     131.629E-03     128.322E-03     72.9834E-03     73.6702E-03
            2284               1     130.656E-03     127.762E-03     73.0300E-03     73.6220E-03
            2285               1     129.657E-03     127.585E-03     73.0033E-03     73.6492E-03
            2286               1     128.853E-03     127.583E-03     73.0176E-03     73.6348E-03
            2287               1     128.131E-03     127.867E-03     73.0098E-03     73.6427E-03
            2288               1     127.554E-03     128.372E-03     73.0151E-03     73.6364E-03
            2289               1     127.082E-03     129.148E-03     73.0089E-03     73.6442E-03
            2290               1     126.751E-03     130.112E-03     73.0120E-03     73.6268E-03
            2291               1     126.543E-03     131.405E-03     73.0119E-03     73.6543E-03
            2292               1     126.303E-03     132.619E-03     72.9203E-03     73.5341E-03
            2293               1     126.754E-03     134.853E-03     73.1479E-03     73.7710E-03
            2294               1     124.040E-03     133.510E-03     71.5337E-03     72.2153E-03
            2295               1     131.950E-03     144.516E-03     75.5075E-03     75.9617E-03
            2296               1     90.0343E-03     97.6705E-03     51.4489E-03     52.4933E-03
            2297               1     124.563E-03     126.697E-03     71.5131E-03     72.1695E-03
            2298               1     128.985E-03     130.288E-03     74.3791E-03     74.5637E-03
            2299               1     129.464E-03     131.127E-03     74.6854E-03     75.1936E-03
            2300               1     130.023E-03     131.154E-03     75.0521E-03     75.2522E-03
            2301               1     129.726E-03     131.136E-03     74.8930E-03     75.3225E-03
            2302               1     129.806E-03     130.837E-03     74.9392E-03     75.1954E-03
            2303               1     129.597E-03     130.715E-03     74.8037E-03     75.1901E-03
            2304               1     129.731E-03     130.540E-03     74.8459E-03     75.1356E-03
            2305               1     129.712E-03     130.469E-03     74.7859E-03     75.1451E-03
            2306               1     129.958E-03     130.443E-03     74.8588E-03     75.1695E-03
            2307               1     130.098E-03     130.433E-03     74.8574E-03     75.2013E-03
            2308               1     130.492E-03     130.569E-03     74.9867E-03     75.3079E-03
            2309               1     130.720E-03     130.595E-03     75.0079E-03     75.3476E-03
            2310               1     131.107E-03     130.722E-03     75.1132E-03     75.4379E-03
            2311               1     130.741E-03     130.134E-03     74.7483E-03     75.1148E-03
            2312               1     130.228E-03     128.971E-03     74.2658E-03     74.4487E-03
            2313               1     125.543E-03     122.947E-03     70.7885E-03     70.9222E-03
            2314               1     125.888E-03     123.548E-03     69.3263E-03     70.9293E-03
            2315               1     128.418E-03     115.538E-03     51.6376E-03     57.5602E-03
            2316               1     130.233E-03     131.949E-03     74.9707E-03     75.6096E-03
            2317               1     131.929E-03     134.353E-03     75.9667E-03     77.1303E-03
            2318               1     131.587E-03     132.831E-03     75.8670E-03     76.3355E-03
            2319               1     130.631E-03     133.014E-03     75.3443E-03     76.5055E-03
            2320               1     130.789E-03     132.082E-03     75.4754E-03     76.0185E-03
            2321               1     130.117E-03     132.226E-03     75.1101E-03     76.1598E-03
            2322               1     130.382E-03     131.742E-03     75.2748E-03     75.9267E-03
            2323               1     130.065E-03     131.861E-03     75.0902E-03     76.0389E-03
            2324               1     130.297E-03     131.642E-03     75.2081E-03     75.9452E-03
            2325               1     130.220E-03     131.713E-03     75.1340E-03     76.0137E-03
            2326               1     130.474E-03     131.711E-03     75.2381E-03     76.0296E-03
            2327               1     130.604E-03     131.806E-03     75.2558E-03     76.0952E-03
            2328               1     131.029E-03     132.087E-03     75.4380E-03     76.2602E-03
            2329               1     131.519E-03     132.450E-03     75.6421E-03     76.4660E-03
            2330               1     132.089E-03     132.922E-03     75.9122E-03     76.7325E-03
            2331               1     133.188E-03     133.815E-03     76.3832E-03     77.2174E-03
            2332               1     130.402E-03     130.682E-03     74.6405E-03     75.3666E-03
            2333               1     127.147E-03     126.223E-03     70.9625E-03     71.7128E-03
            2334               1     91.9447E-03     96.7552E-03     48.1721E-03     48.8570E-03
            2335               1     135.409E-03     137.068E-03     77.7501E-03     78.7144E-03
            2336               1     133.282E-03     134.198E-03     76.6392E-03     77.1530E-03
            2337               1     132.573E-03     134.978E-03     76.2952E-03     77.6837E-03
            2338               1     132.088E-03     133.144E-03     76.0896E-03     76.6930E-03
            2339               1     131.068E-03     133.381E-03     75.5530E-03     76.8856E-03
            2340               1     131.357E-03     132.598E-03     75.7668E-03     76.4801E-03
            2341               1     130.813E-03     132.895E-03     75.4868E-03     76.6865E-03
            2342               1     131.074E-03     132.526E-03     75.6608E-03     76.4975E-03
            2343               1     130.822E-03     132.720E-03     75.5276E-03     76.6228E-03
            2344               1     130.979E-03     132.574E-03     75.6202E-03     76.5413E-03
            2345               1     130.920E-03     132.701E-03     75.5766E-03     76.6060E-03
            2346               1     131.095E-03     132.772E-03     75.6580E-03     76.6293E-03
            2347               1     131.350E-03     133.065E-03     75.7712E-03     76.7662E-03
            2348               1     131.839E-03     133.530E-03     76.0161E-03     76.9979E-03
            2349               1     133.265E-03     134.922E-03     76.7750E-03     77.7407E-03
            2350               1     132.827E-03     134.817E-03     76.4696E-03     77.6269E-03
            2351               1     135.322E-03     137.958E-03     77.7863E-03     79.3306E-03
            2352               1     117.021E-03     113.416E-03     67.0859E-03     65.0202E-03
            2353               1     86.9701E-03     69.9169E-03     49.6113E-03     39.6218E-03
            2354               1     129.808E-03     130.969E-03     74.2241E-03     75.1599E-03
            2355               1     132.869E-03     134.128E-03     76.2049E-03     77.2133E-03
            2356               1     132.733E-03     133.198E-03     76.2222E-03     76.7348E-03
            2357               1     132.282E-03     133.859E-03     76.0581E-03     77.1926E-03
            2358               1     132.526E-03     133.128E-03     76.2736E-03     76.8182E-03
            2359               1     132.039E-03     133.570E-03     76.0538E-03     77.1013E-03
            2360               1     132.286E-03     133.196E-03     76.2461E-03     76.8990E-03
            2361               1     131.993E-03     133.488E-03     76.1191E-03     77.0671E-03
            2362               1     132.096E-03     133.309E-03     76.2111E-03     76.9492E-03
            2363               1     131.938E-03     133.488E-03     76.1461E-03     77.0252E-03
            2364               1     131.919E-03     133.419E-03     76.1521E-03     76.9437E-03
            2365               1     131.880E-03     133.577E-03     76.1390E-03     76.9764E-03
            2366               1     131.786E-03     133.576E-03     76.0850E-03     76.9060E-03
            2367               1     132.021E-03     133.952E-03     76.2087E-03     77.0210E-03
            2368               1     131.604E-03     133.741E-03     75.9346E-03     76.7777E-03
            2369               1     132.226E-03     134.453E-03     76.2536E-03     77.0601E-03
            2370               1     127.080E-03     129.768E-03     73.1051E-03     74.0146E-03
            2371               1     119.676E-03     121.033E-03     68.8677E-03     69.8145E-03
            2372               1     83.9057E-03     86.7328E-03     48.1273E-03     48.8322E-03
            2373               1     124.486E-03     124.594E-03     71.4017E-03     71.8645E-03
            2374               1     130.430E-03     130.104E-03     74.6860E-03     74.9796E-03
            2375               1     132.384E-03     132.346E-03     75.8963E-03     76.3447E-03
            2376               1     133.291E-03     132.884E-03     76.4795E-03     76.6929E-03
            2377               1     133.517E-03     133.583E-03     76.6984E-03     77.1187E-03
            2378               1     133.665E-03     133.544E-03     76.8393E-03     77.0983E-03
            2379               1     133.593E-03     133.824E-03     76.8632E-03     77.2477E-03
            2380               1     133.588E-03     133.797E-03     76.9073E-03     77.1985E-03
            2381               1     133.489E-03     133.979E-03     76.8992E-03     77.2575E-03
            2382               1     133.382E-03     133.972E-03     76.8753E-03     77.1870E-03
            2383               1     133.284E-03     134.131E-03     76.8558E-03     77.1984E-03
            2384               1     133.005E-03     134.038E-03     76.7231E-03     77.0450E-03
            2385               1     132.839E-03     134.146E-03     76.6537E-03     76.9879E-03
            2386               1     131.946E-03     133.510E-03     76.1541E-03     76.4843E-03
            2387               1     130.951E-03     132.826E-03     75.5919E-03     75.9368E-03
            2388               1     127.744E-03     129.656E-03     73.7214E-03     73.9668E-03
            2389               1     121.152E-03     122.321E-03     69.8506E-03     69.9624E-03
            2390               1     114.880E-03     117.463E-03     65.6676E-03     67.5008E-03
            2391               1     103.563E-03     97.6919E-03     47.8635E-03     54.1744E-03
            2392               1     11.5010E-03     11.1324E-03    -6.03121E-03    -6.07480E-03
            2393               1     13.4451E-03     12.8291E-03    -7.04351E-03    -6.92290E-03
            2394               1     14.0651E-03     13.7566E-03    -7.42762E-03    -7.46188E-03
            2395               1     14.8872E-03     14.4875E-03    -7.98490E-03    -7.94476E-03
            2396               1     15.0464E-03     14.7751E-03    -8.17885E-03    -8.18990E-03
            2397               1     15.3537E-03     15.0814E-03    -8.46127E-03    -8.44975E-03
            2398               1     15.2977E-03     15.0814E-03    -8.52402E-03    -8.52388E-03
            2399               1     15.3862E-03     15.2033E-03    -8.66101E-03    -8.65804E-03
            2400               1     15.2293E-03     15.0816E-03    -8.64002E-03    -8.63728E-03
            2401               1     15.2316E-03     15.1239E-03    -8.70030E-03    -8.69904E-03
            2402               1     14.9790E-03     14.9017E-03    -8.59596E-03    -8.59284E-03
            2403               1     14.9208E-03     14.8825E-03    -8.59287E-03    -8.59176E-03
            2404               1     14.4881E-03     14.4773E-03    -8.35754E-03    -8.35503E-03
            2405               1     14.3041E-03     14.3259E-03    -8.25659E-03    -8.25682E-03
            2406               1     13.5150E-03     13.5618E-03    -7.79845E-03    -7.80331E-03
            2407               1     13.0777E-03     13.1429E-03    -7.54402E-03    -7.55925E-03
            2408               1     11.6945E-03     11.7833E-03    -6.73388E-03    -6.78974E-03
            2409               1     11.3126E-03     11.3883E-03    -6.41482E-03    -6.55595E-03
            2410               1     11.0442E-03     10.5204E-03    -4.45220E-03    -5.13772E-03
            2411               1     13.2261E-03     12.5105E-03    -6.81293E-03    -6.52827E-03
            2412               1     13.9625E-03     13.8471E-03    -7.22575E-03    -7.29125E-03
            2413               1     14.9679E-03     14.4883E-03    -7.84158E-03    -7.71639E-03
            2414               1     14.9898E-03     14.8296E-03    -7.99143E-03    -8.02492E-03
            2415               1     15.3073E-03     15.0230E-03    -8.29522E-03    -8.25482E-03
            2416               1     15.1682E-03     14.9950E-03    -8.34455E-03    -8.34542E-03
            2417               1     15.2267E-03     15.0548E-03    -8.48275E-03    -8.47289E-03
            2418               1     15.0682E-03     14.9285E-03    -8.48335E-03    -8.47504E-03
            2419               1     15.0549E-03     14.9513E-03    -8.55153E-03    -8.54904E-03
            2420               1     14.8827E-03     14.7928E-03    -8.50857E-03    -8.49923E-03
            2421               1     14.8612E-03     14.8129E-03    -8.54088E-03    -8.53948E-03
            2422               1     14.6324E-03     14.5942E-03    -8.43209E-03    -8.42283E-03
            2423               1     14.5964E-03     14.6037E-03    -8.42151E-03    -8.42281E-03
            2424               1     14.1953E-03     14.2119E-03    -8.18283E-03    -8.17800E-03
            2425               1     14.0258E-03     14.0963E-03    -8.06636E-03    -8.08188E-03
            2426               1     13.2195E-03     13.3240E-03    -7.58967E-03    -7.62493E-03
            2427               1     12.5560E-03     12.7416E-03    -7.20381E-03    -7.29516E-03
            2428               1     11.0971E-03     11.5274E-03    -6.32490E-03    -6.63312E-03
            2429               1     7.43105E-03     8.00892E-03    -3.98307E-03    -4.06875E-03
            2430               1     13.4487E-03     13.6859E-03    -6.91657E-03    -7.03088E-03
            2431               1     14.9902E-03     14.6324E-03    -7.71448E-03    -7.58604E-03
            2432               1     15.1950E-03     15.2401E-03    -7.98413E-03    -8.05097E-03
            2433               1     15.5629E-03     15.3039E-03    -8.29865E-03    -8.23406E-03
            2434               1     15.2922E-03     15.2157E-03    -8.30768E-03    -8.31449E-03
            2435               1     15.2727E-03     15.1341E-03    -8.40684E-03    -8.38791E-03
            2436               1     15.0395E-03     14.9441E-03    -8.38976E-03    -8.37924E-03
            2437               1     14.9572E-03     14.8793E-03    -8.43096E-03    -8.42655E-03
            2438               1     14.7969E-03     14.7214E-03    -8.41262E-03    -8.39980E-03
            2439               1     14.7497E-03     14.7071E-03    -8.44478E-03    -8.44280E-03
            2440               1     14.6328E-03     14.5862E-03    -8.41438E-03    -8.40217E-03
            2441               1     14.6446E-03     14.6341E-03    -8.44568E-03    -8.44504E-03
            2442               1     14.5036E-03     14.4895E-03    -8.36703E-03    -8.35741E-03
            2443               1     14.5215E-03     14.5484E-03    -8.36140E-03    -8.36679E-03
            2444               1     14.1327E-03     14.1671E-03    -8.11477E-03    -8.12063E-03
            2445               1     13.7646E-03     13.8093E-03    -7.86916E-03    -7.88083E-03
            2446               1     12.5909E-03     12.7334E-03    -7.20758E-03    -7.28955E-03
            2447               1     10.2255E-03     9.97970E-03    -5.88578E-03    -5.75821E-03
            2448               1     6.47796E-03     5.89780E-03    -3.73159E-03    -3.40303E-03
            2449               1     13.8111E-03     14.0591E-03    -6.85531E-03    -6.98427E-03
            2450               1     15.1375E-03     15.4348E-03    -7.81975E-03    -7.93901E-03
            2451               1     15.7656E-03     15.6617E-03    -8.29114E-03    -8.27033E-03
            2452               1     15.5338E-03     15.5807E-03    -8.36254E-03    -8.36600E-03
            2453               1     15.4447E-03     15.3918E-03    -8.40778E-03    -8.39745E-03
            2454               1     15.1355E-03     15.1135E-03    -8.36987E-03    -8.35425E-03
            2455               1     14.9479E-03     14.9290E-03    -8.35221E-03    -8.35046E-03
            2456               1     14.7506E-03     14.7184E-03    -8.32958E-03    -8.31384E-03
            2457               1     14.6249E-03     14.6155E-03    -8.32692E-03    -8.32597E-03
            2458               1     14.5350E-03     14.5065E-03    -8.32702E-03    -8.31319E-03
            2459               1     14.5059E-03     14.5000E-03    -8.35004E-03    -8.34854E-03
            2460               1     14.4914E-03     14.4689E-03    -8.35911E-03    -8.34707E-03
            2461               1     14.5477E-03     14.5480E-03    -8.39393E-03    -8.39385E-03
            2462               1     14.4820E-03     14.4697E-03    -8.34385E-03    -8.33615E-03
            2463               1     14.4410E-03     14.4341E-03    -8.27892E-03    -8.27535E-03
            2464               1     13.7823E-03     13.7704E-03    -7.86799E-03    -7.86168E-03
            2465               1     12.5886E-03     12.3515E-03    -7.13105E-03    -7.01852E-03
            2466               1     10.0508E-03     9.75358E-03    -5.62541E-03    -5.44664E-03
            2467               1     6.55607E-03     6.15718E-03    -3.50580E-03    -3.33065E-03
            2468               1     14.5677E-03     15.0141E-03    -6.95157E-03    -7.18200E-03
            2469               1     15.6330E-03     15.7875E-03    -8.01263E-03    -8.10151E-03
            2470               1     15.6203E-03     15.7724E-03    -8.32230E-03    -8.30325E-03
            2471               1     15.5225E-03     15.6322E-03    -8.36261E-03    -8.39762E-03
            2472               1     15.2379E-03     15.3001E-03    -8.36571E-03    -8.33530E-03
            2473               1     14.9504E-03     15.0343E-03    -8.28215E-03    -8.29581E-03
            2474               1     14.7272E-03     14.7626E-03    -8.25863E-03    -8.23816E-03
            2475               1     14.5046E-03     14.5611E-03    -8.20353E-03    -8.20747E-03
            2476               1     14.3976E-03     14.4154E-03    -8.20712E-03    -8.19236E-03
            2477               1     14.2829E-03     14.3124E-03    -8.19188E-03    -8.19146E-03
            2478               1     14.2908E-03     14.2905E-03    -8.22772E-03    -8.21560E-03
            2479               1     14.2819E-03     14.2862E-03    -8.24256E-03    -8.24024E-03
            2480               1     14.3621E-03     14.3426E-03    -8.29055E-03    -8.27975E-03
            2481               1     14.3947E-03     14.3680E-03    -8.28944E-03    -8.28290E-03
            2482               1     14.2928E-03     14.2429E-03    -8.20584E-03    -8.19024E-03
            2483               1     14.0283E-03     13.8983E-03    -7.95888E-03    -7.91570E-03
            2484               1     12.6122E-03     12.3983E-03    -7.02110E-03    -6.91075E-03
            2485               1     10.7269E-03     10.2788E-03    -5.66536E-03    -5.47817E-03
            2486               1     7.74922E-03     7.31852E-03    -3.40450E-03    -3.14995E-03
            2487               1     15.9120E-03     16.0847E-03    -7.56067E-03    -7.63139E-03
            2488               1     15.4985E-03     15.6388E-03    -8.03139E-03    -7.91349E-03
            2489               1     15.3314E-03     15.6730E-03    -8.11464E-03    -8.22673E-03
            2490               1     15.1849E-03     15.3120E-03    -8.26247E-03    -8.19426E-03
            2491               1     14.8219E-03     15.0615E-03    -8.13550E-03    -8.18453E-03
            2492               1     14.6519E-03     14.7683E-03    -8.15881E-03    -8.12804E-03
            2493               1     14.3511E-03     14.5089E-03    -8.05830E-03    -8.07411E-03
            2494               1     14.2389E-03     14.3276E-03    -8.07042E-03    -8.05410E-03
            2495               1     14.0391E-03     14.1355E-03    -8.01277E-03    -8.01608E-03
            2496               1     14.0245E-03     14.0749E-03    -8.04812E-03    -8.03682E-03
            2497               1     13.9183E-03     13.9612E-03    -8.01908E-03    -8.01800E-03
            2498               1     14.0062E-03     14.0129E-03    -8.08377E-03    -8.07375E-03
            2499               1     13.9591E-03     13.9462E-03    -8.05652E-03    -8.05123E-03
            2500               1     14.0824E-03     14.0344E-03    -8.11460E-03    -8.10018E-03
            2501               1     13.9884E-03     13.8956E-03    -8.00349E-03    -7.98666E-03
            2502               1     13.7882E-03     13.6322E-03    -7.82257E-03    -7.77820E-03
            2503               1     13.5769E-03     13.3784E-03    -7.38499E-03    -7.36949E-03
            2504               1     11.6076E-03     11.3142E-03    -5.67917E-03    -5.51843E-03
            2505               1     9.79015E-03     9.20246E-03    -3.48677E-03    -3.19637E-03
            2506               1     15.6802E-03     15.7743E-03    -7.64943E-03    -7.30396E-03
            2507               1     15.0007E-03     15.5382E-03    -7.60496E-03    -7.74168E-03
            2508               1     14.8948E-03     15.0933E-03    -7.94707E-03    -7.82158E-03
            2509               1     14.4630E-03     14.8840E-03    -7.82082E-03    -7.90521E-03
            2510               1     14.4274E-03     14.6448E-03    -7.95770E-03    -7.91471E-03
            2511               1     14.0977E-03     14.3842E-03    -7.84858E-03    -7.87883E-03
            2512               1     14.0291E-03     14.2134E-03    -7.89914E-03    -7.88190E-03
            2513               1     13.7793E-03     13.9694E-03    -7.81869E-03    -7.82665E-03
            2514               1     13.7489E-03     13.8772E-03    -7.85671E-03    -7.84723E-03
            2515               1     13.5678E-03     13.6782E-03    -7.79360E-03    -7.79472E-03
            2516               1     13.6141E-03     13.6764E-03    -7.84611E-03    -7.83904E-03
            2517               1     13.4699E-03     13.5017E-03    -7.77616E-03    -7.77394E-03
            2518               1     13.5881E-03     13.5750E-03    -7.84174E-03    -7.83304E-03
            2519               1     13.4118E-03     13.3501E-03    -7.71306E-03    -7.70443E-03
            2520               1     13.5492E-03     13.4292E-03    -7.74972E-03    -7.72868E-03
            2521               1     13.3171E-03     13.1334E-03    -7.46100E-03    -7.45633E-03
            2522               1     13.4140E-03     13.1429E-03    -7.31827E-03    -7.28755E-03
            2523               1     14.3025E-03     14.0271E-03    -6.69414E-03    -6.80393E-03
            2524               1     12.5255E-03     12.6475E-03    -3.52145E-03    -3.49427E-03
            2525               1     14.6923E-03     15.5243E-03    -6.70408E-03    -6.81436E-03
            2526               1     14.4956E-03     14.9430E-03    -7.36653E-03    -7.22651E-03
            2527               1     13.9449E-03     14.5159E-03    -7.30339E-03    -7.37283E-03
            2528               1     14.0287E-03     14.4105E-03    -7.59706E-03    -7.55701E-03
            2529               1     13.7264E-03     14.1449E-03    -7.54329E-03    -7.57110E-03
            2530               1     13.7320E-03     14.0488E-03    -7.66149E-03    -7.64864E-03
            2531               1     13.4786E-03     13.7816E-03    -7.59216E-03    -7.60034E-03
            2532               1     13.4551E-03     13.6912E-03    -7.64726E-03    -7.64188E-03
            2533               1     13.2414E-03     13.4432E-03    -7.57464E-03    -7.57663E-03
            2534               1     13.2552E-03     13.4000E-03    -7.62051E-03    -7.61722E-03
            2535               1     13.0624E-03     13.1640E-03    -7.53304E-03    -7.53347E-03
            2536               1     13.1307E-03     13.1753E-03    -7.58095E-03    -7.57755E-03
            2537               1     12.8899E-03     12.8821E-03    -7.43278E-03    -7.43219E-03
            2538               1     12.9962E-03     12.9180E-03    -7.46500E-03    -7.45698E-03
            2539               1     12.6147E-03     12.4671E-03    -7.16518E-03    -7.16616E-03
            2540               1     12.8752E-03     12.6104E-03    -7.18272E-03    -7.16283E-03
            2541               1     12.5430E-03     12.1736E-03    -6.57162E-03    -6.60265E-03
            2542               1     14.1475E-03     13.5829E-03    -6.87597E-03    -6.87712E-03
            2543               1     18.3679E-03     17.3470E-03    -5.06637E-03    -5.42487E-03
            2544               1     19.9908E-03     19.0875E-03    -4.50353E-03    -4.44635E-03
            2545               1     20.5964E-03     19.8694E-03    -5.74906E-03    -5.67486E-03
            2546               1     20.6669E-03     20.1065E-03    -6.68349E-03    -6.65306E-03
            2547               1     20.5207E-03     20.0627E-03    -7.52165E-03    -7.47957E-03
            2548               1     20.0779E-03     19.7177E-03    -8.09019E-03    -8.07161E-03
            2549               1     19.6152E-03     19.3246E-03    -8.61250E-03    -8.59210E-03
            2550               1     18.9487E-03     18.7103E-03    -8.90156E-03    -8.88714E-03
            2551               1     18.3860E-03     18.2051E-03    -9.18416E-03    -9.17493E-03
            2552               1     17.6600E-03     17.5100E-03    -9.25365E-03    -9.24220E-03
            2553               1     17.1257E-03     17.0247E-03    -9.34703E-03    -9.34269E-03
            2554               1     16.4062E-03     16.3302E-03    -9.21393E-03    -9.20593E-03
            2555               1     15.9421E-03     15.9092E-03    -9.12749E-03    -9.12763E-03
            2556               1     15.2034E-03     15.1981E-03    -8.77132E-03    -8.77022E-03
            2557               1     14.7288E-03     14.7757E-03    -8.47271E-03    -8.48634E-03
            2558               1     13.8404E-03     13.9336E-03    -7.85587E-03    -7.87377E-03
            2559               1     13.0948E-03     13.3159E-03    -7.28489E-03    -7.34898E-03
            2560               1     11.6891E-03     12.0623E-03    -6.35293E-03    -6.44571E-03
            2561               1     10.0831E-03     10.9560E-03    -5.43468E-03    -5.72632E-03
            2562               1     6.20518E-03     8.35931E-03    -3.50383E-03    -4.47937E-03
            2563               1     21.7431E-03     21.4285E-03    -4.90290E-03    -4.75235E-03
            2564               1     21.9152E-03     21.5979E-03    -5.88740E-03    -5.80997E-03
            2565               1     21.6762E-03     21.3107E-03    -6.76298E-03    -6.64312E-03
            2566               1     21.0424E-03     20.7765E-03    -7.35372E-03    -7.29799E-03
            2567               1     20.3556E-03     20.0830E-03    -7.91515E-03    -7.84869E-03
            2568               1     19.4602E-03     19.2551E-03    -8.24428E-03    -8.19996E-03
            2569               1     18.6636E-03     18.4906E-03    -8.56576E-03    -8.53429E-03
            2570               1     17.7677E-03     17.6164E-03    -8.70549E-03    -8.66994E-03
            2571               1     17.0462E-03     16.9463E-03    -8.85476E-03    -8.83984E-03
            2572               1     16.2669E-03     16.1681E-03    -8.83316E-03    -8.80648E-03
            2573               1     15.7321E-03     15.6884E-03    -8.84173E-03    -8.83666E-03
            2574               1     15.0967E-03     15.0563E-03    -8.64769E-03    -8.63369E-03
            2575               1     14.7642E-03     14.7877E-03    -8.50262E-03    -8.51690E-03
            2576               1     14.2090E-03     14.2569E-03    -8.09806E-03    -8.11405E-03
            2577               1     13.9068E-03     14.0690E-03    -7.74298E-03    -7.81777E-03
            2578               1     13.2208E-03     13.4556E-03    -7.09018E-03    -7.19693E-03
            2579               1     12.4637E-03     12.9572E-03    -6.42712E-03    -6.68592E-03
            2580               1     10.9057E-03     11.7267E-03    -5.41003E-03    -5.94269E-03
            2581               1     8.61948E-03     8.07734E-03    -4.00909E-03    -4.28051E-03
            2582               1     23.1464E-03     23.3915E-03    -5.18655E-03    -5.25178E-03
            2583               1     23.1427E-03     23.1238E-03    -6.23750E-03    -6.11168E-03
            2584               1     22.5323E-03     22.5476E-03    -6.88808E-03    -6.85410E-03
            2585               1     21.7318E-03     21.5913E-03    -7.49506E-03    -7.39613E-03
            2586               1     20.6089E-03     20.5498E-03    -7.81921E-03    -7.76508E-03
            2587               1     19.5817E-03     19.4735E-03    -8.14713E-03    -8.09477E-03
            2588               1     18.4386E-03     18.3565E-03    -8.30098E-03    -8.24885E-03
            2589               1     17.4692E-03     17.4083E-03    -8.46323E-03    -8.43755E-03
            2590               1     16.5170E-03     16.4410E-03    -8.50290E-03    -8.46085E-03
            2591               1     15.7916E-03     15.7618E-03    -8.56191E-03    -8.54944E-03
            2592               1     15.1134E-03     15.0596E-03    -8.48775E-03    -8.45895E-03
            2593               1     14.7423E-03     14.7420E-03    -8.45247E-03    -8.45462E-03
            2594               1     14.3173E-03     14.3096E-03    -8.21989E-03    -8.21672E-03
            2595               1     14.2403E-03     14.2968E-03    -8.04412E-03    -8.08192E-03
            2596               1     13.8886E-03     13.9697E-03    -7.57378E-03    -7.63540E-03
            2597               1     13.6939E-03     13.8329E-03    -7.14427E-03    -7.25923E-03
            2598               1     12.9315E-03     13.1247E-03    -6.32523E-03    -6.55515E-03
            2599               1     11.7658E-03     11.2562E-03    -5.41487E-03    -5.42916E-03
            2600               1     9.00725E-03     8.61963E-03    -3.54755E-03    -3.29646E-03
            2601               1     24.3967E-03     24.7906E-03    -5.46645E-03    -5.47797E-03
            2602               1     24.0998E-03     24.4876E-03    -6.43847E-03    -6.52455E-03
            2603               1     23.3577E-03     23.4581E-03    -7.22180E-03    -7.14327E-03
            2604               1     22.1233E-03     22.3190E-03    -7.57637E-03    -7.55273E-03
            2605               1     20.9565E-03     20.9839E-03    -7.91788E-03    -7.86575E-03
            2606               1     19.5649E-03     19.6310E-03    -8.05088E-03    -7.99574E-03
            2607               1     18.3570E-03     18.3880E-03    -8.18809E-03    -8.16105E-03
            2608               1     17.1671E-03     17.1725E-03    -8.23731E-03    -8.18584E-03
            2609               1     16.1805E-03     16.2085E-03    -8.29475E-03    -8.27955E-03
            2610               1     15.3384E-03     15.3160E-03    -8.28734E-03    -8.24681E-03
            2611               1     14.7645E-03     14.7785E-03    -8.30232E-03    -8.29524E-03
            2612               1     14.3141E-03     14.2820E-03    -8.20648E-03    -8.18214E-03
            2613               1     14.2272E-03     14.2270E-03    -8.15559E-03    -8.16305E-03
            2614               1     14.0212E-03     14.0005E-03    -7.86476E-03    -7.87621E-03
            2615               1     14.1695E-03     14.1327E-03    -7.63587E-03    -7.66506E-03
            2616               1     13.7863E-03     13.7449E-03    -6.96321E-03    -7.04170E-03
            2617               1     13.3973E-03     13.0158E-03    -6.30338E-03    -6.27008E-03
            2618               1     11.9863E-03     11.6136E-03    -4.88505E-03    -4.80086E-03
            2619               1     10.6206E-03     9.96617E-03    -3.10209E-03    -3.14585E-03
            2620               1     25.8212E-03     26.3312E-03    -5.62302E-03    -5.85924E-03
            2621               1     25.0415E-03     25.3564E-03    -6.86132E-03    -6.83525E-03
            2622               1     23.7604E-03     24.2513E-03    -7.36331E-03    -7.42513E-03
            2623               1     22.5544E-03     22.7507E-03    -7.80320E-03    -7.78137E-03
            2624               1     20.9417E-03     21.2181E-03    -7.91903E-03    -7.88061E-03
            2625               1     19.5607E-03     19.7321E-03    -8.01737E-03    -8.00803E-03
            2626               1     18.1279E-03     18.2713E-03    -8.04144E-03    -7.98913E-03
            2627               1     16.8838E-03     17.0194E-03    -8.05408E-03    -8.04706E-03
            2628               1     15.8120E-03     15.8757E-03    -8.06124E-03    -8.01553E-03
            2629               1     14.9477E-03     15.0283E-03    -8.06809E-03    -8.06044E-03
            2630               1     14.3427E-03     14.3419E-03    -8.05424E-03    -8.01715E-03
            2631               1     14.0361E-03     14.0458E-03    -8.05805E-03    -8.05103E-03
            2632               1     13.8582E-03     13.7975E-03    -7.94510E-03    -7.92094E-03
            2633               1     14.0915E-03     13.9953E-03    -7.87626E-03    -7.86500E-03
            2634               1     13.9603E-03     13.8242E-03    -7.43069E-03    -7.43135E-03
            2635               1     14.2070E-03     13.8606E-03    -7.04451E-03    -6.98478E-03
            2636               1     13.5255E-03     13.1567E-03    -5.89810E-03    -5.84706E-03
            2637               1     12.9499E-03     12.3288E-03    -4.67268E-03    -4.58234E-03
            2638               1     12.2296E-03     11.4910E-03    -2.79745E-03    -2.54262E-03
            2639               1     27.1496E-03     27.5492E-03    -6.26855E-03    -6.22615E-03
            2640               1     25.6143E-03     26.2802E-03    -7.03047E-03    -7.18351E-03
            2641               1     24.3062E-03     24.6213E-03    -7.70667E-03    -7.73177E-03
            2642               1     22.4145E-03     22.9055E-03    -7.83983E-03    -7.82296E-03
            2643               1     20.9104E-03     21.2452E-03    -7.90623E-03    -7.93941E-03
            2644               1     19.2544E-03     19.5681E-03    -7.89977E-03    -7.85192E-03
            2645               1     17.8006E-03     18.0853E-03    -7.83989E-03    -7.85741E-03
            2646               1     16.4956E-03     16.6912E-03    -7.82764E-03    -7.78282E-03
            2647               1     15.3390E-03     15.5379E-03    -7.78210E-03    -7.78523E-03
            2648               1     14.4993E-03     14.5898E-03    -7.79246E-03    -7.75250E-03
            2649               1     13.8592E-03     13.9446E-03    -7.78528E-03    -7.77857E-03
            2650               1     13.5621E-03     13.5333E-03    -7.78732E-03    -7.74767E-03
            2651               1     13.5781E-03     13.5129E-03    -7.78789E-03    -7.76753E-03
            2652               1     13.6462E-03     13.4773E-03    -7.63589E-03    -7.59107E-03
            2653               1     14.2234E-03     13.9169E-03    -7.51175E-03    -7.44830E-03
            2654               1     14.0391E-03     13.6789E-03    -6.74377E-03    -6.67828E-03
            2655               1     14.4208E-03     13.8346E-03    -6.01100E-03    -5.88860E-03
            2656               1     14.0282E-03     13.3621E-03    -4.30089E-03    -4.13763E-03
            2657               1     13.8956E-03     13.3195E-03    -2.45778E-03    -2.34071E-03
            2658               1     28.1859E-03     28.8131E-03    -6.58391E-03    -6.80425E-03
            2659               1     26.4747E-03     26.7617E-03    -7.63118E-03    -7.65461E-03
            2660               1     23.9992E-03     24.6360E-03    -7.77244E-03    -7.73972E-03
            2661               1     22.3269E-03     22.8031E-03    -7.79895E-03    -7.88739E-03
            2662               1     20.4287E-03     20.9061E-03    -7.77619E-03    -7.72610E-03
            2663               1     18.8039E-03     19.2563E-03    -7.62737E-03    -7.68473E-03
            2664               1     17.2974E-03     17.6486E-03    -7.58757E-03    -7.54634E-03
            2665               1     15.8975E-03     16.2519E-03    -7.46560E-03    -7.49015E-03
            2666               1     14.8089E-03     15.0387E-03    -7.46163E-03    -7.42593E-03
            2667               1     13.8288E-03     14.0449E-03    -7.40178E-03    -7.40537E-03
            2668               1     13.2855E-03     13.3623E-03    -7.43940E-03    -7.40121E-03
            2669               1     12.9233E-03     12.9557E-03    -7.42877E-03    -7.41500E-03
            2670               1     12.9663E-03     12.8460E-03    -7.45660E-03    -7.40225E-03
            2671               1     13.3376E-03     13.1253E-03    -7.43859E-03    -7.39167E-03
            2672               1     13.6733E-03     13.3244E-03    -7.23420E-03    -7.14061E-03
            2673               1     14.8328E-03     14.2946E-03    -7.01881E-03    -6.90326E-03
            2674               1     14.8180E-03     14.2427E-03    -5.73541E-03    -5.61755E-03
            2675               1     15.6235E-03     14.9720E-03    -4.49202E-03    -4.32587E-03
            2676               1     16.2550E-03     15.3997E-03    -2.17898E-03    -1.96959E-03
            2677               1     29.5179E-03     29.6730E-03    -7.71031E-03    -7.66185E-03
            2678               1     25.8867E-03     26.5518E-03    -7.79045E-03    -7.62478E-03
            2679               1     23.8511E-03     24.4315E-03    -7.65361E-03    -7.79523E-03
            2680               1     21.6279E-03     22.2185E-03    -7.63741E-03    -7.55215E-03
            2681               1     19.8100E-03     20.4217E-03    -7.37113E-03    -7.47539E-03
            2682               1     18.1350E-03     18.6367E-03    -7.31977E-03    -7.27719E-03
            2683               1     16.5430E-03     17.0663E-03    -7.11392E-03    -7.16579E-03
            2684               1     15.2409E-03     15.6348E-03    -7.08542E-03    -7.05617E-03
            2685               1     13.9774E-03     14.3608E-03    -6.95866E-03    -6.97743E-03
            2686               1     13.1405E-03     13.3787E-03    -6.98130E-03    -6.95244E-03
            2687               1     12.3837E-03     12.5689E-03    -6.91895E-03    -6.91772E-03
            2688               1     12.1742E-03     12.1853E-03    -6.99281E-03    -6.95101E-03
            2689               1     12.1091E-03     12.0321E-03    -6.96294E-03    -6.93948E-03
            2690               1     12.5565E-03     12.2856E-03    -7.03803E-03    -6.95703E-03
            2691               1     13.3709E-03     12.9893E-03    -6.97204E-03    -6.90616E-03
            2692               1     14.2335E-03     13.6939E-03    -6.80390E-03    -6.64819E-03
            2693               1     16.6729E-03     15.9555E-03    -6.52970E-03    -6.37082E-03
            2694               1     17.3158E-03     16.5522E-03    -4.31633E-03    -4.19481E-03
            2695               1     18.3480E-03     17.9260E-03    -2.20188E-03    -2.03510E-03
            2696               1     28.2698E-03     28.9182E-03    -8.03207E-03    -7.58043E-03
            2697               1     25.5421E-03     26.2285E-03    -7.42279E-03    -7.59724E-03
            2698               1     22.9122E-03     23.5699E-03    -7.45132E-03    -7.29543E-03
            2699               1     20.8152E-03     21.5440E-03    -7.02187E-03    -7.15489E-03
            2700               1     18.9814E-03     19.6123E-03    -6.98492E-03    -6.93407E-03
            2701               1     17.2233E-03     17.8956E-03    -6.70339E-03    -6.77324E-03
            2702               1     15.7525E-03     16.3159E-03    -6.65925E-03    -6.63615E-03
            2703               1     14.2783E-03     14.8377E-03    -6.47505E-03    -6.50486E-03
            2704               1     13.1708E-03     13.6033E-03    -6.46690E-03    -6.44886E-03
            2705               1     12.0836E-03     12.4598E-03    -6.35051E-03    -6.35929E-03
            2706               1     11.5123E-03     11.7217E-03    -6.39879E-03    -6.37583E-03
            2707               1     11.0019E-03     11.1028E-03    -6.32020E-03    -6.31471E-03
            2708               1     11.1710E-03     11.0635E-03    -6.43151E-03    -6.38723E-03
            2709               1     11.4275E-03     11.1983E-03    -6.34603E-03    -6.32123E-03
            2710               1     12.4457E-03     12.0114E-03    -6.52346E-03    -6.42298E-03
            2711               1     13.8577E-03     13.3455E-03    -6.36453E-03    -6.30164E-03
            2712               1     15.7961E-03     15.1589E-03    -6.52859E-03    -6.31813E-03
            2713               1     20.8305E-03     20.0714E-03    -6.22710E-03    -6.00934E-03
            2714               1     22.4994E-03     21.3817E-03    -2.01225E-03    -1.90180E-03
            2715               1     27.3487E-03     28.1883E-03    -6.91022E-03    -7.07241E-03
            2716               1     24.3848E-03     25.1619E-03    -7.10526E-03    -6.93060E-03
            2717               1     21.8954E-03     22.6397E-03    -6.52635E-03    -6.62305E-03
            2718               1     19.8838E-03     20.6348E-03    -6.52595E-03    -6.47912E-03
            2719               1     17.9596E-03     18.7133E-03    -6.20922E-03    -6.25657E-03
            2720               1     16.3322E-03     17.0634E-03    -6.15708E-03    -6.14262E-03
            2721               1     14.7055E-03     15.4166E-03    -5.94473E-03    -5.96550E-03
            2722               1     13.3701E-03     14.0130E-03    -5.90613E-03    -5.89860E-03
            2723               1     12.0391E-03     12.6193E-03    -5.75604E-03    -5.76407E-03
            2724               1     11.1104E-03     11.5618E-03    -5.76183E-03    -5.75446E-03
            2725               1     10.2246E-03     10.5512E-03    -5.64683E-03    -5.64885E-03
            2726               1     9.94713E-03     10.0734E-03    -5.70907E-03    -5.69656E-03
            2727               1     9.72446E-03     9.67416E-03    -5.58743E-03    -5.58533E-03
            2728               1     10.3605E-03     10.0897E-03    -5.72643E-03    -5.69643E-03
            2729               1     10.9907E-03     10.5849E-03    -5.52808E-03    -5.52288E-03
            2730               1     12.8333E-03     12.2981E-03    -5.86236E-03    -5.78495E-03
            2731               1     14.8430E-03     14.3279E-03    -5.45706E-03    -5.44801E-03
            2732               1     18.9822E-03     18.5262E-03    -6.62198E-03    -6.41178E-03
            2733               1     28.3448E-03     28.3718E-03    -5.19999E-03    -4.97195E-03
            2734               1     33.2154E-03     32.4510E-03    -3.29121E-03    -3.11671E-03
            2735               1     31.7911E-03     31.3733E-03    -4.68301E-03    -4.71107E-03
            2736               1     30.5118E-03     30.0721E-03    -6.20081E-03    -6.08390E-03
            2737               1     28.7716E-03     28.5868E-03    -7.14619E-03    -7.13985E-03
            2738               1     27.1903E-03     27.0214E-03    -8.14035E-03    -8.07452E-03
            2739               1     25.3207E-03     25.2931E-03    -8.70579E-03    -8.69075E-03
            2740               1     23.6911E-03     23.6828E-03    -9.31387E-03    -9.27880E-03
            2741               1     21.8679E-03     21.9202E-03    -9.55415E-03    -9.53941E-03
            2742               1     20.4165E-03     20.4736E-03    -9.85637E-03    -9.83728E-03
            2743               1     18.8150E-03     18.8822E-03    -9.79802E-03    -9.78865E-03
            2744               1     17.7615E-03     17.8066E-03    -9.83237E-03    -9.82181E-03
            2745               1     16.5343E-03     16.5682E-03    -9.46766E-03    -9.47081E-03
            2746               1     16.0203E-03     16.0082E-03    -9.23136E-03    -9.22992E-03
            2747               1     15.2130E-03     15.2253E-03    -8.52462E-03    -8.55757E-03
            2748               1     15.1457E-03     15.1342E-03    -7.98170E-03    -8.00280E-03
            2749               1     14.5288E-03     14.7242E-03    -6.86063E-03    -6.97502E-03
            2750               1     14.4735E-03     14.8520E-03    -5.93886E-03    -6.05078E-03
            2751               1     13.1904E-03     14.4512E-03    -4.12753E-03    -4.55389E-03
            2752               1     12.1973E-03     15.6708E-03    -2.22859E-03    -3.45563E-03
            2753               1     35.2598E-03     35.4675E-03    -3.17854E-03    -3.28712E-03
            2754               1     33.8758E-03     33.6986E-03    -4.80264E-03    -4.53598E-03
            2755               1     31.7098E-03     31.7908E-03    -5.73818E-03    -5.73855E-03
            2756               1     29.8091E-03     29.6755E-03    -6.85485E-03    -6.65874E-03
            2757               1     27.4786E-03     27.5597E-03    -7.44863E-03    -7.41216E-03
            2758               1     25.4274E-03     25.4046E-03    -8.15776E-03    -8.04292E-03
            2759               1     23.1486E-03     23.2440E-03    -8.47437E-03    -8.43116E-03
            2760               1     21.2174E-03     21.2695E-03    -8.87315E-03    -8.80960E-03
            2761               1     19.2041E-03     19.2940E-03    -8.94021E-03    -8.90573E-03
            2762               1     17.6924E-03     17.7515E-03    -9.09422E-03    -9.05853E-03
            2763               1     16.1845E-03     16.2429E-03    -8.90662E-03    -8.89449E-03
            2764               1     15.4283E-03     15.4343E-03    -8.83889E-03    -8.82482E-03
            2765               1     14.6426E-03     14.6792E-03    -8.36234E-03    -8.39892E-03
            2766               1     14.7869E-03     14.7544E-03    -8.05697E-03    -8.08328E-03
            2767               1     14.6796E-03     14.8068E-03    -7.24622E-03    -7.39281E-03
            2768               1     15.4055E-03     15.4945E-03    -6.65658E-03    -6.80434E-03
            2769               1     15.5034E-03     15.9211E-03    -5.49242E-03    -5.90105E-03
            2770               1     16.3818E-03     16.8466E-03    -4.42620E-03    -5.13968E-03
            2771               1     17.0693E-03     14.9812E-03    -4.01418E-03    -4.40018E-03
            2772               1     37.6864E-03     38.0495E-03    -3.76114E-03    -3.71760E-03
            2773               1     35.3668E-03     35.8928E-03    -4.84564E-03    -4.89869E-03
            2774               1     33.2857E-03     33.3786E-03    -5.96645E-03    -5.73788E-03
            2775               1     30.5848E-03     30.9398E-03    -6.57088E-03    -6.54670E-03
            2776               1     28.2135E-03     28.2787E-03    -7.32342E-03    -7.15040E-03
            2777               1     25.4909E-03     25.7368E-03    -7.65961E-03    -7.60486E-03
            2778               1     23.1227E-03     23.2226E-03    -8.10486E-03    -8.00044E-03
            2779               1     20.6453E-03     20.8181E-03    -8.24071E-03    -8.18633E-03
            2780               1     18.6002E-03     18.7059E-03    -8.46370E-03    -8.40284E-03
            2781               1     16.6511E-03     16.7572E-03    -8.40938E-03    -8.37424E-03
            2782               1     15.3789E-03     15.4274E-03    -8.45715E-03    -8.42493E-03
            2783               1     14.3157E-03     14.3574E-03    -8.18066E-03    -8.18759E-03
            2784               1     14.2590E-03     14.2117E-03    -8.05086E-03    -8.05632E-03
            2785               1     14.2522E-03     14.2750E-03    -7.49916E-03    -7.59098E-03
            2786               1     15.2481E-03     15.1479E-03    -7.13923E-03    -7.23452E-03
            2787               1     15.9265E-03     15.9287E-03    -6.32124E-03    -6.55339E-03
            2788               1     17.1770E-03     17.0015E-03    -5.59368E-03    -5.93023E-03
            2789               1     18.1781E-03     17.0279E-03    -4.99704E-03    -5.10187E-03
            2790               1     16.9709E-03     16.5592E-03    -3.39488E-03    -3.20680E-03
            2791               1     39.3352E-03     39.9577E-03    -4.30645E-03    -4.41395E-03
            2792               1     37.0429E-03     37.4632E-03    -5.35785E-03    -5.25899E-03
            2793               1     34.2062E-03     34.8894E-03    -6.04892E-03    -6.07621E-03
            2794               1     31.6356E-03     31.8753E-03    -6.79639E-03    -6.63038E-03
            2795               1     28.5582E-03     29.0512E-03    -7.13042E-03    -7.09012E-03
            2796               1     25.8712E-03     26.0791E-03    -7.56992E-03    -7.45048E-03
            2797               1     22.9639E-03     23.2936E-03    -7.72011E-03    -7.65920E-03
            2798               1     20.4469E-03     20.6416E-03    -7.95253E-03    -7.87747E-03
            2799               1     18.0100E-03     18.2155E-03    -7.97305E-03    -7.92053E-03
            2800               1     16.1006E-03     16.2326E-03    -8.07332E-03    -8.02686E-03
            2801               1     14.5371E-03     14.6232E-03    -7.94998E-03    -7.92428E-03
            2802               1     13.8882E-03     13.8814E-03    -7.93490E-03    -7.91541E-03
            2803               1     13.6117E-03     13.5821E-03    -7.60301E-03    -7.63060E-03
            2804               1     14.4825E-03     14.3027E-03    -7.42186E-03    -7.45334E-03
            2805               1     15.2848E-03     15.1131E-03    -6.81764E-03    -6.92378E-03
            2806               1     16.7996E-03     16.4282E-03    -6.32126E-03    -6.45668E-03
            2807               1     18.0378E-03     17.2687E-03    -5.57262E-03    -5.63452E-03
            2808               1     18.4178E-03     17.8101E-03    -4.42159E-03    -4.41595E-03
            2809               1     19.4016E-03     18.1616E-03    -2.81653E-03    -2.97667E-03
            2810               1     40.6881E-03     41.3967E-03    -4.84857E-03    -4.88034E-03
            2811               1     38.0520E-03     38.8590E-03    -5.73123E-03    -5.81541E-03
            2812               1     35.3036E-03     35.7420E-03    -6.49629E-03    -6.41122E-03
            2813               1     32.0074E-03     32.7636E-03    -6.85898E-03    -6.85418E-03
            2814               1     29.1131E-03     29.4643E-03    -7.25788E-03    -7.16975E-03
            2815               1     25.8504E-03     26.3897E-03    -7.38925E-03    -7.33626E-03
            2816               1     22.9931E-03     23.3132E-03    -7.57175E-03    -7.50796E-03
            2817               1     20.1208E-03     20.4776E-03    -7.60964E-03    -7.55130E-03
            2818               1     17.6443E-03     17.8986E-03    -7.69531E-03    -7.64918E-03
            2819               1     15.5138E-03     15.7054E-03    -7.66328E-03    -7.61660E-03
            2820               1     14.0553E-03     14.1581E-03    -7.69357E-03    -7.66081E-03
            2821               1     13.2229E-03     13.2190E-03    -7.54557E-03    -7.52271E-03
            2822               1     13.5220E-03     13.3682E-03    -7.49104E-03    -7.47776E-03
            2823               1     14.1335E-03     13.9059E-03    -7.10738E-03    -7.12317E-03
            2824               1     15.7690E-03     15.3319E-03    -6.82578E-03    -6.84903E-03
            2825               1     17.1228E-03     16.4987E-03    -6.09619E-03    -6.11205E-03
            2826               1     18.4734E-03     17.7894E-03    -5.27325E-03    -5.26589E-03
            2827               1     19.8778E-03     18.7966E-03    -3.96478E-03    -3.97132E-03
            2828               1     20.5389E-03     19.6569E-03    -2.35472E-03    -2.17850E-03
            2829               1     42.0235E-03     42.6517E-03    -5.32244E-03    -5.46129E-03
            2830               1     39.0384E-03     39.6192E-03    -6.31707E-03    -6.28373E-03
            2831               1     35.6298E-03     36.5508E-03    -6.75666E-03    -6.79654E-03
            2832               1     32.5691E-03     33.0457E-03    -7.13878E-03    -7.11922E-03
            2833               1     29.0072E-03     29.7569E-03    -7.23963E-03    -7.20108E-03
            2834               1     25.9289E-03     26.3872E-03    -7.32390E-03    -7.30544E-03
            2835               1     22.7070E-03     23.2418E-03    -7.33545E-03    -7.28139E-03
            2836               1     19.8267E-03     20.2251E-03    -7.34330E-03    -7.32001E-03
            2837               1     17.1984E-03     17.5430E-03    -7.33779E-03    -7.28572E-03
            2838               1     14.9848E-03     15.2455E-03    -7.34283E-03    -7.31516E-03
            2839               1     13.4522E-03     13.5642E-03    -7.31245E-03    -7.26411E-03
            2840               1     12.7914E-03     12.7700E-03    -7.31040E-03    -7.27972E-03
            2841               1     12.9267E-03     12.7284E-03    -7.16372E-03    -7.11842E-03
            2842               1     14.2616E-03     13.8543E-03    -7.06398E-03    -7.02714E-03
            2843               1     15.5751E-03     15.0333E-03    -6.55238E-03    -6.51001E-03
            2844               1     17.6518E-03     16.9277E-03    -6.06966E-03    -6.00509E-03
            2845               1     19.3353E-03     18.3902E-03    -4.87489E-03    -4.83381E-03
            2846               1     20.7412E-03     19.8856E-03    -3.62064E-03    -3.49441E-03
            2847               1     22.7835E-03     21.6398E-03    -1.74825E-03    -1.69355E-03
            2848               1     42.9882E-03     43.6636E-03    -6.12042E-03    -6.01560E-03
            2849               1     39.4319E-03     40.3643E-03    -6.71265E-03    -6.79090E-03
            2850               1     36.1418E-03     36.6664E-03    -7.18586E-03    -7.22615E-03
            2851               1     32.2416E-03     33.1403E-03    -7.24770E-03    -7.20572E-03
            2852               1     28.9986E-03     29.5771E-03    -7.19703E-03    -7.25386E-03
            2853               1     25.4938E-03     26.1923E-03    -7.15757E-03    -7.10650E-03
            2854               1     22.3569E-03     22.9006E-03    -7.03153E-03    -7.05664E-03
            2855               1     19.3538E-03     19.8644E-03    -7.00178E-03    -6.95460E-03
            2856               1     16.6014E-03     17.0340E-03    -6.91966E-03    -6.91678E-03
            2857               1     14.4149E-03     14.7055E-03    -6.92860E-03    -6.87770E-03
            2858               1     12.7269E-03     12.9136E-03    -6.90166E-03    -6.87845E-03
            2859               1     12.0895E-03     12.0271E-03    -6.91662E-03    -6.84816E-03
            2860               1     12.4998E-03     12.2499E-03    -6.89858E-03    -6.85000E-03
            2861               1     13.6169E-03     13.1474E-03    -6.75638E-03    -6.65479E-03
            2862               1     15.9407E-03     15.2434E-03    -6.59310E-03    -6.48791E-03
            2863               1     17.7599E-03     16.9486E-03    -5.74423E-03    -5.64829E-03
            2864               1     20.2864E-03     19.3945E-03    -4.96292E-03    -4.80422E-03
            2865               1     22.5603E-03     21.4045E-03    -3.10859E-03    -3.01672E-03
            2866               1     24.2034E-03     23.3631E-03    -1.34998E-03    -1.22894E-03
            2867               1     43.7338E-03     44.5066E-03    -6.69444E-03    -6.82348E-03
            2868               1     39.9856E-03     40.4323E-03    -7.43320E-03    -7.46255E-03
            2869               1     35.4900E-03     36.4506E-03    -7.40570E-03    -7.31139E-03
            2870               1     32.0640E-03     32.7159E-03    -7.17441E-03    -7.31418E-03
            2871               1     28.2870E-03     29.0947E-03    -7.06829E-03    -7.00173E-03
            2872               1     24.9787E-03     25.6467E-03    -6.75749E-03    -6.84983E-03
            2873               1     21.7153E-03     22.3685E-03    -6.67390E-03    -6.63193E-03
            2874               1     18.6376E-03     19.2283E-03    -6.45762E-03    -6.49500E-03
            2875               1     15.9611E-03     16.4410E-03    -6.44378E-03    -6.40345E-03
            2876               1     13.4934E-03     13.9045E-03    -6.33342E-03    -6.33352E-03
            2877               1     11.9632E-03     12.1361E-03    -6.40035E-03    -6.34024E-03
            2878               1     11.1041E-03     11.1129E-03    -6.36584E-03    -6.33405E-03
            2879               1     11.6003E-03     11.2798E-03    -6.46406E-03    -6.35531E-03
            2880               1     13.1942E-03     12.6808E-03    -6.43515E-03    -6.34747E-03
            2881               1     15.1866E-03     14.4867E-03    -6.30360E-03    -6.12463E-03
            2882               1     18.7042E-03     17.7658E-03    -6.09952E-03    -5.89054E-03
            2883               1     21.1067E-03     20.0880E-03    -4.60719E-03    -4.48939E-03
            2884               1     24.0346E-03     23.2058E-03    -3.36620E-03    -3.16457E-03
            2885               1     27.0768E-03     25.7123E-03    -847.810E-06    -643.381E-06
            2886               1     44.4626E-03     44.7371E-03    -8.04071E-03    -7.97521E-03
            2887               1     38.8034E-03     39.7363E-03    -7.79811E-03    -7.54242E-03
            2888               1     35.0866E-03     35.7656E-03    -7.23561E-03    -7.45133E-03
            2889               1     30.9911E-03     31.8270E-03    -7.05348E-03    -6.93267E-03
            2890               1     27.5271E-03     28.2786E-03    -6.49730E-03    -6.66004E-03
            2891               1     24.0896E-03     24.8320E-03    -6.35004E-03    -6.30248E-03
            2892               1     20.8273E-03     21.5417E-03    -5.96771E-03    -6.05036E-03
            2893               1     17.8395E-03     18.4766E-03    -5.89735E-03    -5.86884E-03
            2894               1     14.9119E-03     15.5162E-03    -5.67081E-03    -5.69957E-03
            2895               1     12.6379E-03     13.0726E-03    -5.70871E-03    -5.67009E-03
            2896               1     10.6385E-03     10.9562E-03    -5.59854E-03    -5.59265E-03
            2897               1     10.0451E-03     10.0114E-03    -5.75552E-03    -5.67847E-03
            2898               1     10.3181E-03     10.0713E-03    -5.71546E-03    -5.67029E-03
            2899               1     12.0439E-03     11.4794E-03    -5.95024E-03    -5.79091E-03
            2900               1     14.8082E-03     14.1242E-03    -5.91528E-03    -5.78472E-03
            2901               1     17.6767E-03     16.8795E-03    -5.92328E-03    -5.63771E-03
            2902               1     23.0670E-03     21.9958E-03    -5.76612E-03    -5.41319E-03
            2903               1     26.3613E-03     24.9909E-03    -3.01507E-03    -2.90025E-03
            2904               1     28.7759E-03     28.3929E-03    -842.872E-06    -763.478E-06
            2905               1     42.2472E-03     43.0908E-03    -8.60220E-03    -8.03206E-03
            2906               1     38.0322E-03     38.7229E-03    -7.33244E-03    -7.60333E-03
            2907               1     33.5889E-03     34.3735E-03    -7.08023E-03    -6.87409E-03
            2908               1     29.9300E-03     30.6936E-03    -6.20776E-03    -6.41135E-03
            2909               1     26.3777E-03     27.1431E-03    -5.99507E-03    -5.93154E-03
            2910               1     23.0047E-03     23.7826E-03    -5.43616E-03    -5.54576E-03
            2911               1     19.8462E-03     20.5883E-03    -5.29565E-03    -5.27369E-03
            2912               1     16.6950E-03     17.4368E-03    -4.94671E-03    -4.99454E-03
            2913               1     13.9444E-03     14.5971E-03    -4.91603E-03    -4.89717E-03
            2914               1     11.2303E-03     11.8249E-03    -4.71203E-03    -4.72544E-03
            2915               1     9.46478E-03     9.81541E-03    -4.81814E-03    -4.78092E-03
            2916               1     8.22482E-03     8.34264E-03    -4.70947E-03    -4.69870E-03
            2917               1     8.93358E-03     8.62625E-03    -4.97795E-03    -4.89221E-03
            2918               1     10.4941E-03     10.0200E-03    -4.91591E-03    -4.86779E-03
            2919               1     13.3774E-03     12.7227E-03    -5.38016E-03    -5.18580E-03
            2920               1     17.1861E-03     16.5438E-03    -5.31994E-03    -5.17128E-03
            2921               1     21.1558E-03     20.5087E-03    -5.90176E-03    -5.47357E-03
            2922               1     29.8725E-03     28.9927E-03    -5.87456E-03    -5.26952E-03
            2923               1     34.3528E-03     31.9528E-03    -445.737E-06    -193.830E-06
            2924               1     40.7675E-03     41.3968E-03    -7.24869E-03    -7.48599E-03
            2925               1     36.1291E-03     36.8405E-03    -7.00176E-03    -6.78525E-03
            2926               1     32.2061E-03     32.8179E-03    -5.82128E-03    -5.96386E-03
            2927               1     28.5714E-03     29.3048E-03    -5.52828E-03    -5.46799E-03
            2928               1     25.1235E-03     25.8569E-03    -4.83333E-03    -4.90550E-03
            2929               1     21.8752E-03     22.6720E-03    -4.60733E-03    -4.59077E-03
            2930               1     18.6425E-03     19.4487E-03    -4.16030E-03    -4.19335E-03
            2931               1     15.6421E-03     16.4495E-03    -4.04455E-03    -4.03747E-03
            2932               1     12.6085E-03     13.3978E-03    -3.75800E-03    -3.77109E-03
            2933               1     10.0354E-03     10.7300E-03    -3.77571E-03    -3.76599E-03
            2934               1     7.60614E-03     8.16096E-03    -3.59724E-03    -3.60029E-03
            2935               1     6.62814E-03     6.79287E-03    -3.76917E-03    -3.74665E-03
            2936               1     6.71194E-03     6.46868E-03    -3.64751E-03    -3.64289E-03
            2937               1     8.96272E-03     8.43371E-03    -4.02443E-03    -3.96844E-03
            2938               1     11.6124E-03     11.0413E-03    -3.89585E-03    -3.87857E-03
            2939               1     15.5021E-03     15.0109E-03    -4.67551E-03    -4.52938E-03
            2940               1     19.9271E-03     19.6702E-03    -4.42947E-03    -4.36480E-03
            2941               1     25.9535E-03     26.1312E-03    -6.55371E-03    -6.09723E-03
            2942               1     39.7246E-03     41.3657E-03    -5.44448E-03    -4.58066E-03
            2943               1     45.5189E-03     44.9758E-03    -2.46398E-03    -2.21173E-03
            2944               1     42.2431E-03     42.1517E-03    -3.98505E-03    -4.08068E-03
            2945               1     39.5777E-03     39.3532E-03    -5.92757E-03    -5.76111E-03
            2946               1     36.3589E-03     36.4797E-03    -6.98840E-03    -6.99838E-03
            2947               1     33.5140E-03     33.6093E-03    -8.22852E-03    -8.13525E-03
            2948               1     30.3372E-03     30.6229E-03    -8.86294E-03    -8.84918E-03
            2949               1     27.5594E-03     27.8365E-03    -9.61628E-03    -9.56627E-03
            2950               1     24.5853E-03     24.9300E-03    -9.86443E-03    -9.84737E-03
            2951               1     22.2029E-03     22.5058E-03    -10.2376E-03    -10.2100E-03
            2952               1     19.7323E-03     20.0025E-03    -10.1132E-03    -10.1021E-03
            2953               1     18.2288E-03     18.3826E-03    -10.1543E-03    -10.1385E-03
            2954               1     16.7091E-03     16.7546E-03    -9.63389E-03    -9.63922E-03
            2955               1     16.5742E-03     16.4417E-03    -9.34409E-03    -9.33986E-03
            2956               1     16.2935E-03     16.0981E-03    -8.36711E-03    -8.41109E-03
            2957               1     17.4393E-03     17.1365E-03    -7.71362E-03    -7.73438E-03
            2958               1     17.9933E-03     17.9042E-03    -6.14553E-03    -6.29019E-03
            2959               1     19.7962E-03     19.8935E-03    -5.07186E-03    -5.18781E-03
            2960               1     20.2227E-03     21.2399E-03    -2.37078E-03    -2.88155E-03
            2961               1     23.9529E-03     27.0900E-03    -486.940E-06    -1.82601E-03
            2962               1     47.8761E-03     48.5043E-03    -1.90137E-03    -2.18405E-03
            2963               1     44.9598E-03     45.0109E-03    -3.97883E-03    -3.61662E-03
            2964               1     40.9862E-03     41.4292E-03    -5.02259E-03    -5.08077E-03
            2965               1     37.7054E-03     37.8236E-03    -6.44829E-03    -6.17548E-03
            2966               1     33.8717E-03     34.2834E-03    -7.11613E-03    -7.08945E-03
            2967               1     30.5107E-03     30.7551E-03    -8.01575E-03    -7.85373E-03
            2968               1     26.8710E-03     27.2741E-03    -8.36347E-03    -8.31492E-03
            2969               1     23.7328E-03     24.0408E-03    -8.86763E-03    -8.77666E-03
            2970               1     20.5438E-03     20.8861E-03    -8.90817E-03    -8.86648E-03
            2971               1     18.1459E-03     18.3792E-03    -9.10072E-03    -9.04882E-03
            2972               1     15.9547E-03     16.1212E-03    -8.81334E-03    -8.79951E-03
            2973               1     15.1800E-03     15.1552E-03    -8.72580E-03    -8.70326E-03
            2974               1     14.7392E-03     14.6502E-03    -8.05834E-03    -8.10731E-03
            2975               1     16.0503E-03     15.7656E-03    -7.67782E-03    -7.70569E-03
            2976               1     17.2008E-03     17.0410E-03    -6.56815E-03    -6.75355E-03
            2977               1     19.8020E-03     19.5334E-03    -5.84846E-03    -6.01802E-03
            2978               1     21.4988E-03     21.5255E-03    -4.29943E-03    -4.79064E-03
            2979               1     25.4197E-03     25.2869E-03    -3.03425E-03    -3.84430E-03
            2980               1     27.8165E-03     24.8903E-03    -3.67708E-03    -4.10938E-03
            2981               1     51.2134E-03     51.6944E-03    -2.65910E-03    -2.62327E-03
            2982               1     46.6624E-03     47.5806E-03    -3.85685E-03    -3.97769E-03
            2983               1     43.0603E-03     43.3720E-03    -5.18887E-03    -4.87420E-03
            2984               1     38.6320E-03     39.3515E-03    -5.86393E-03    -5.86291E-03
            2985               1     34.8461E-03     35.1597E-03    -6.81171E-03    -6.56849E-03
            2986               1     30.5999E-03     31.1717E-03    -7.19174E-03    -7.13419E-03
            2987               1     26.8596E-03     27.2107E-03    -7.76318E-03    -7.61399E-03
            2988               1     22.9864E-03     23.4411E-03    -7.90352E-03    -7.83863E-03
            2989               1     19.7036E-03     20.0241E-03    -8.18990E-03    -8.10162E-03
            2990               1     16.6602E-03     16.9532E-03    -8.08628E-03    -8.04315E-03
            2991               1     14.7728E-03     14.8902E-03    -8.14388E-03    -8.09549E-03
            2992               1     13.5977E-03     13.6105E-03    -7.75007E-03    -7.76084E-03
            2993               1     14.3912E-03     14.1509E-03    -7.58131E-03    -7.58250E-03
            2994               1     15.5970E-03     15.3726E-03    -6.84074E-03    -6.96035E-03
            2995               1     18.4306E-03     17.9750E-03    -6.39480E-03    -6.50813E-03
            2996               1     20.7978E-03     20.4329E-03    -5.38796E-03    -5.68029E-03
            2997               1     24.3184E-03     23.6503E-03    -4.53416E-03    -4.93898E-03
            2998               1     27.1369E-03     25.4874E-03    -4.37993E-03    -4.52265E-03
            2999               1     27.0330E-03     26.4708E-03    -2.90363E-03    -2.78906E-03
            3000               1     52.9203E-03     53.7431E-03    -3.62941E-03    -3.67547E-03
            3001               1     48.8336E-03     49.4101E-03    -4.47894E-03    -4.34727E-03
            3002               1     44.1030E-03     45.1527E-03    -5.19935E-03    -5.23695E-03
            3003               1     40.0151E-03     40.4670E-03    -6.04127E-03    -5.80751E-03
            3004               1     35.2736E-03     36.1097E-03    -6.41296E-03    -6.37175E-03
            3005               1     31.1267E-03     31.5664E-03    -6.96102E-03    -6.78915E-03
            3006               1     26.6835E-03     27.3119E-03    -7.13194E-03    -7.06027E-03
            3007               1     22.7368E-03     23.1565E-03    -7.43483E-03    -7.32498E-03
            3008               1     18.9182E-03     19.3597E-03    -7.44367E-03    -7.37882E-03
            3009               1     15.8526E-03     16.1375E-03    -7.57306E-03    -7.50391E-03
            3010               1     13.5491E-03     13.7134E-03    -7.39361E-03    -7.36163E-03
            3011               1     13.0372E-03     12.9377E-03    -7.36963E-03    -7.33770E-03
            3012               1     13.6344E-03     13.4203E-03    -6.93147E-03    -6.96927E-03
            3013               1     16.2217E-03     15.7177E-03    -6.70594E-03    -6.74208E-03
            3014               1     18.7688E-03     18.2684E-03    -5.98753E-03    -6.13034E-03
            3015               1     22.3240E-03     21.5408E-03    -5.42150E-03    -5.59867E-03
            3016               1     25.4028E-03     24.2326E-03    -4.81614E-03    -4.91977E-03
            3017               1     27.2780E-03     26.3945E-03    -3.68850E-03    -3.76118E-03
            3018               1     29.7644E-03     28.0887E-03    -2.30225E-03    -2.52300E-03
            3019               1     54.1374E-03     55.0730E-03    -4.33520E-03    -4.36710E-03
            3020               1     49.8401E-03     50.9191E-03    -5.06665E-03    -5.10250E-03
            3021               1     45.4605E-03     46.0689E-03    -5.70717E-03    -5.58140E-03
            3022               1     40.4292E-03     41.5239E-03    -6.06095E-03    -6.04418E-03
            3023               1     36.0200E-03     36.5671E-03    -6.48762E-03    -6.35529E-03
            3024               1     31.1323E-03     31.9763E-03    -6.63272E-03    -6.56864E-03
            3025               1     26.7716E-03     27.2998E-03    -6.86075E-03    -6.76327E-03
            3026               1     22.3676E-03     22.9799E-03    -6.90527E-03    -6.83360E-03
            3027               1     18.4409E-03     18.8853E-03    -7.02060E-03    -6.94989E-03
            3028               1     15.0704E-03     15.4260E-03    -6.97529E-03    -6.91599E-03
            3029               1     12.8532E-03     12.9975E-03    -7.01386E-03    -6.96331E-03
            3030               1     12.1375E-03     12.0468E-03    -6.82596E-03    -6.79697E-03
            3031               1     13.6936E-03     13.2744E-03    -6.75901E-03    -6.73667E-03
            3032               1     15.9665E-03     15.4538E-03    -6.31544E-03    -6.34222E-03
            3033               1     19.6479E-03     18.8407E-03    -6.00476E-03    -6.04068E-03
            3034               1     22.8975E-03     21.9214E-03    -5.28574E-03    -5.33207E-03
            3035               1     25.9378E-03     24.9492E-03    -4.45505E-03    -4.50162E-03
            3036               1     29.0215E-03     27.5606E-03    -3.25877E-03    -3.30847E-03
            3037               1     30.7063E-03     29.5991E-03    -1.65792E-03    -1.56668E-03
            3038               1     55.3286E-03     56.0967E-03    -5.03895E-03    -5.10983E-03
            3039               1     50.7530E-03     51.5166E-03    -5.76120E-03    -5.70559E-03
            3040               1     45.7152E-03     46.9262E-03    -6.08287E-03    -6.08301E-03
            3041               1     41.1090E-03     41.7414E-03    -6.35809E-03    -6.31676E-03
            3042               1     35.8926E-03     36.9367E-03    -6.43284E-03    -6.37693E-03
            3043               1     31.2992E-03     31.9291E-03    -6.49512E-03    -6.45581E-03
            3044               1     26.4831E-03     27.2703E-03    -6.50702E-03    -6.44007E-03
            3045               1     22.0637E-03     22.6429E-03    -6.51767E-03    -6.47529E-03
            3046               1     17.9483E-03     18.4940E-03    -6.51804E-03    -6.45219E-03
            3047               1     14.3810E-03     14.7786E-03    -6.52927E-03    -6.48420E-03
            3048               1     12.0641E-03     12.2189E-03    -6.50412E-03    -6.44082E-03
            3049               1     11.6161E-03     11.4545E-03    -6.50617E-03    -6.45974E-03
            3050               1     12.9806E-03     12.5483E-03    -6.36112E-03    -6.30322E-03
            3051               1     16.3199E-03     15.5712E-03    -6.26377E-03    -6.21565E-03
            3052               1     19.5595E-03     18.7150E-03    -5.74373E-03    -5.70469E-03
            3053               1     23.5679E-03     22.5354E-03    -5.26381E-03    -5.21133E-03
            3054               1     27.0799E-03     25.7845E-03    -4.05289E-03    -4.04008E-03
            3055               1     29.7808E-03     28.7027E-03    -2.79151E-03    -2.73211E-03
            3056               1     33.2405E-03     31.7294E-03    -933.871E-06    -909.095E-06
            3057               1     55.9180E-03     56.8032E-03    -5.96525E-03    -5.81584E-03
            3058               1     50.9324E-03     52.0865E-03    -6.31677E-03    -6.34291E-03
            3059               1     46.1418E-03     46.7978E-03    -6.57016E-03    -6.60931E-03
            3060               1     40.6401E-03     41.8035E-03    -6.52774E-03    -6.45616E-03
            3061               1     35.9142E-03     36.6188E-03    -6.35250E-03    -6.41156E-03
            3062               1     30.8137E-03     31.7431E-03    -6.27865E-03    -6.21367E-03
            3063               1     26.1549E-03     26.8410E-03    -6.09663E-03    -6.11650E-03
            3064               1     21.5902E-03     22.2964E-03    -6.06542E-03    -6.00669E-03
            3065               1     17.2875E-03     17.8718E-03    -5.96335E-03    -5.94977E-03
            3066               1     13.7592E-03     14.1826E-03    -5.99503E-03    -5.92874E-03
            3067               1     11.1272E-03     11.3456E-03    -5.96901E-03    -5.93144E-03
            3068               1     10.7015E-03     10.5026E-03    -6.03064E-03    -5.93933E-03
            3069               1     12.5700E-03     12.0360E-03    -6.03018E-03    -5.96232E-03
            3070               1     15.5380E-03     14.8101E-03    -5.94519E-03    -5.81390E-03
            3071               1     20.0535E-03     19.0480E-03    -5.81527E-03    -5.68365E-03
            3072               1     23.7853E-03     22.6895E-03    -4.92823E-03    -4.82736E-03
            3073               1     28.0036E-03     26.8884E-03    -4.15780E-03    -4.00524E-03
            3074               1     31.9605E-03     30.4216E-03    -2.17050E-03    -2.09631E-03
            3075               1     34.5047E-03     33.4649E-03    -359.343E-06    -338.070E-06
            3076               1     56.3193E-03     57.2379E-03    -6.68564E-03    -6.76333E-03
            3077               1     51.1745E-03     51.7319E-03    -7.12928E-03    -7.16478E-03
            3078               1     45.1758E-03     46.3603E-03    -6.89842E-03    -6.76358E-03
            3079               1     40.3561E-03     41.0891E-03    -6.42837E-03    -6.59853E-03
            3080               1     35.0381E-03     36.0370E-03    -6.22605E-03    -6.14182E-03
            3081               1     30.2803E-03     31.0375E-03    -5.77189E-03    -5.87974E-03
            3082               1     25.4731E-03     26.2875E-03    -5.65311E-03    -5.60219E-03
            3083               1     20.8624E-03     21.5663E-03    -5.36516E-03    -5.40379E-03
            3084               1     16.6640E-03     17.2883E-03    -5.36309E-03    -5.31184E-03
            3085               1     12.6998E-03     13.2276E-03    -5.22896E-03    -5.22158E-03
            3086               1     10.2317E-03     10.4286E-03    -5.35572E-03    -5.27543E-03
            3087               1     9.45971E-03     9.31920E-03    -5.33403E-03    -5.28708E-03
            3088               1     11.3805E-03     10.8160E-03    -5.54159E-03    -5.39444E-03
            3089               1     15.1366E-03     14.3562E-03    -5.55925E-03    -5.44110E-03
            3090               1     19.0323E-03     18.1534E-03    -5.53905E-03    -5.29935E-03
            3091               1     24.7521E-03     23.5736E-03    -5.40888E-03    -5.13550E-03
            3092               1     29.0118E-03     27.6787E-03    -3.73314E-03    -3.60586E-03
            3093               1     33.3004E-03     32.3501E-03    -2.46816E-03    -2.28044E-03
            3094               1     37.8314E-03     35.9953E-03     256.686E-06     504.954E-06
            3095               1     56.5301E-03     56.8791E-03    -8.18976E-03    -8.11936E-03
            3096               1     49.4560E-03     50.5677E-03    -7.62104E-03    -7.31509E-03
            3097               1     44.4995E-03     45.2066E-03    -6.69315E-03    -6.96603E-03
            3098               1     38.9588E-03     39.9261E-03    -6.33264E-03    -6.19030E-03
            3099               1     34.1613E-03     34.9397E-03    -5.52668E-03    -5.72742E-03
            3100               1     29.2555E-03     30.1021E-03    -5.28620E-03    -5.23108E-03
            3101               1     24.5620E-03     25.3276E-03    -4.75831E-03    -4.85625E-03
            3102               1     20.0670E-03     20.8072E-03    -4.66315E-03    -4.62893E-03
            3103               1     15.5930E-03     16.2886E-03    -4.36776E-03    -4.39796E-03
            3104               1     11.8488E-03     12.3880E-03    -4.44785E-03    -4.39734E-03
            3105               1     8.59077E-03     8.95932E-03    -4.32670E-03    -4.31390E-03
            3106               1     8.06930E-03     7.87745E-03    -4.60007E-03    -4.49548E-03
            3107               1     9.89192E-03     9.39475E-03    -4.59867E-03    -4.53557E-03
            3108               1     13.5879E-03     12.8602E-03    -5.02618E-03    -4.80612E-03
            3109               1     18.6077E-03     17.7888E-03    -5.07800E-03    -4.89867E-03
            3110               1     23.1868E-03     22.3430E-03    -5.28320E-03    -4.88219E-03
            3111               1     30.9365E-03     29.6950E-03    -5.26387E-03    -4.76410E-03
            3112               1     36.1251E-03     34.2503E-03    -1.99511E-03    -1.86693E-03
            3113               1     39.2211E-03     38.9019E-03     317.058E-06     296.015E-06
            3114               1     53.4929E-03     54.4290E-03    -8.90208E-03    -8.25892E-03
            3115               1     48.2517E-03     48.8902E-03    -7.08606E-03    -7.43641E-03
            3116               1     42.4935E-03     43.3139E-03    -6.55652E-03    -6.32448E-03
            3117               1     37.6523E-03     38.3648E-03    -5.31063E-03    -5.56726E-03
            3118               1     32.7521E-03     33.5395E-03    -4.92517E-03    -4.85400E-03
            3119               1     28.0864E-03     28.8423E-03    -4.13175E-03    -4.26660E-03
            3120               1     23.5227E-03     24.2981E-03    -3.90799E-03    -3.88350E-03
            3121               1     18.9579E-03     19.7215E-03    -3.42911E-03    -3.48537E-03
            3122               1     14.7019E-03     15.4236E-03    -3.39947E-03    -3.37615E-03
            3123               1     10.4075E-03     11.0911E-03    -3.14502E-03    -3.15835E-03
            3124               1     7.27003E-03     7.68460E-03    -3.33964E-03    -3.28989E-03
            3125               1     5.67298E-03     5.64936E-03    -3.24569E-03    -3.22896E-03
            3126               1     8.10303E-03     7.54915E-03    -3.70255E-03    -3.58446E-03
            3127               1     11.9507E-03     11.3497E-03    -3.71426E-03    -3.64784E-03
            3128               1     16.6289E-03     16.0003E-03    -4.48655E-03    -4.21096E-03
            3129               1     22.5348E-03     21.9608E-03    -4.56018E-03    -4.34662E-03
            3130               1     27.9588E-03     27.4811E-03    -5.56060E-03    -4.92995E-03
            3131               1     39.6152E-03     38.7789E-03    -5.78467E-03    -4.86033E-03
            3132               1     46.1569E-03     42.6684E-03     845.057E-06     1.22392E-03
            3133               1     51.4473E-03     51.8408E-03    -7.38685E-03    -7.68390E-03
            3134               1     45.6719E-03     46.2531E-03    -6.72992E-03    -6.48933E-03
            3135               1     40.7367E-03     41.1753E-03    -5.04269E-03    -5.22130E-03
            3136               1     35.9116E-03     36.5529E-03    -4.46872E-03    -4.40162E-03
            3137               1     31.3310E-03     31.9575E-03    -3.44684E-03    -3.53660E-03
            3138               1     26.8283E-03     27.5705E-03    -3.05826E-03    -3.03994E-03
            3139               1     22.3614E-03     23.1133E-03    -2.41269E-03    -2.45290E-03
            3140               1     18.0053E-03     18.7995E-03    -2.23982E-03    -2.23169E-03
            3141               1     13.5845E-03     14.3819E-03    -1.85317E-03    -1.86830E-03
            3142               1     9.42806E-03     10.1922E-03    -1.91254E-03    -1.90004E-03
            3143               1     5.28412E-03     5.97607E-03    -1.71377E-03    -1.71654E-03
            3144               1     3.52616E-03     3.54646E-03    -2.02993E-03    -1.99950E-03
            3145               1     5.74723E-03     5.16811E-03    -1.95757E-03    -1.95071E-03
            3146               1     10.2027E-03     9.60717E-03    -2.60100E-03    -2.52324E-03
            3147               1     14.8735E-03     14.3744E-03    -2.58559E-03    -2.56008E-03
            3148               1     20.1725E-03     19.9276E-03    -3.81937E-03    -3.60979E-03
            3149               1     26.3983E-03     26.5133E-03    -3.74278E-03    -3.63660E-03
            3150               1     33.7309E-03     34.6092E-03    -6.80037E-03    -6.11923E-03
            3151               1     51.2583E-03     54.4339E-03    -5.91376E-03    -4.50509E-03
            3152               1     55.3284E-03     55.0851E-03    -2.35191E-03    -2.09641E-03
            3153               1     50.6058E-03     50.9843E-03    -4.07930E-03    -4.11867E-03
            3154               1     46.7506E-03     46.9502E-03    -6.00875E-03    -5.86932E-03
            3155               1     42.2856E-03     42.8953E-03    -7.23921E-03    -7.21728E-03
            3156               1     38.1199E-03     38.6557E-03    -8.27885E-03    -8.20177E-03
            3157               1     33.7885E-03     34.5402E-03    -9.01200E-03    -9.00091E-03
            3158               1     29.6689E-03     30.3319E-03    -9.51645E-03    -9.46778E-03
            3159               1     25.7169E-03     26.4489E-03    -9.85602E-03    -9.85054E-03
            3160               1     22.1326E-03     22.7187E-03    -9.96775E-03    -9.93225E-03
            3161               1     19.2241E-03     19.7023E-03    -9.98313E-03    -9.97628E-03
            3162               1     17.1091E-03     17.2899E-03    -9.71941E-03    -9.68950E-03
            3163               1     16.4554E-03     16.3177E-03    -9.39640E-03    -9.38981E-03
            3164               1     16.8625E-03     16.3336E-03    -8.67864E-03    -8.65898E-03
            3165               1     18.6575E-03     17.8934E-03    -7.88363E-03    -7.89739E-03
            3166               1     21.0101E-03     20.0522E-03    -6.60932E-03    -6.61860E-03
            3167               1     23.5644E-03     22.7213E-03    -5.00773E-03    -5.11479E-03
            3168               1     26.8935E-03     26.1513E-03    -3.23419E-03    -3.31442E-03
            3169               1     28.9776E-03     28.9440E-03     84.4096E-06    -369.506E-06
            3170               1     36.2031E-03     37.7108E-03     2.09579E-03     1.06958E-03
            3171               1     57.6554E-03     58.7846E-03    -1.78336E-03    -1.92426E-03
            3172               1     53.6178E-03     54.0454E-03    -3.75352E-03    -3.47295E-03
            3173               1     48.1483E-03     48.9232E-03    -5.05235E-03    -4.99135E-03
            3174               1     43.4571E-03     44.0303E-03    -6.20577E-03    -5.98070E-03
            3175               1     38.3624E-03     39.1117E-03    -6.96602E-03    -6.93098E-03
            3176               1     33.5616E-03     34.2020E-03    -7.59579E-03    -7.43872E-03
            3177               1     28.7398E-03     29.5088E-03    -7.97335E-03    -7.96228E-03
            3178               1     24.2587E-03     24.8774E-03    -8.25040E-03    -8.14023E-03
            3179               1     20.0871E-03     20.7438E-03    -8.35901E-03    -8.34732E-03
            3180               1     16.6799E-03     17.0570E-03    -8.33563E-03    -8.24851E-03
            3181               1     14.4978E-03     14.6858E-03    -8.20499E-03    -8.18767E-03
            3182               1     14.0075E-03     13.7197E-03    -7.84775E-03    -7.77819E-03
            3183               1     15.6147E-03     15.0557E-03    -7.43031E-03    -7.42707E-03
            3184               1     18.3746E-03     17.5731E-03    -6.60127E-03    -6.58601E-03
            3185               1     21.9443E-03     21.1248E-03    -5.73754E-03    -5.82797E-03
            3186               1     26.2609E-03     25.3454E-03    -4.30289E-03    -4.43376E-03
            3187               1     29.4046E-03     28.7213E-03    -2.79246E-03    -3.18236E-03
            3188               1     35.8858E-03     34.8705E-03    -799.860E-06    -1.44317E-03
            3189               1     37.6855E-03     34.6649E-03    -2.18333E-03    -2.58381E-03
            3190               1     61.6064E-03     62.2506E-03    -2.45931E-03    -2.64159E-03
            3191               1     55.1593E-03     56.3514E-03    -4.03127E-03    -3.90541E-03
            3192               1     50.0227E-03     50.8129E-03    -4.84977E-03    -4.64700E-03
            3193               1     44.2530E-03     45.1299E-03    -5.61912E-03    -5.56662E-03
            3194               1     38.8744E-03     39.6082E-03    -6.15902E-03    -5.93764E-03
            3195               1     33.4216E-03     34.2284E-03    -6.48815E-03    -6.47696E-03
            3196               1     28.2439E-03     28.9098E-03    -6.79877E-03    -6.63072E-03
            3197               1     23.1584E-03     23.9039E-03    -6.91484E-03    -6.90599E-03
            3198               1     18.6049E-03     19.1358E-03    -7.03072E-03    -6.90141E-03
            3199               1     14.6796E-03     15.1776E-03    -7.00719E-03    -6.98821E-03
            3200               1     12.3497E-03     12.3885E-03    -6.92505E-03    -6.81700E-03
            3201               1     12.4382E-03     12.1806E-03    -6.77012E-03    -6.74995E-03
            3202               1     14.7437E-03     14.0906E-03    -6.39864E-03    -6.32409E-03
            3203               1     18.8056E-03     18.0355E-03    -6.07934E-03    -6.09425E-03
            3204               1     23.3304E-03     22.4287E-03    -5.12385E-03    -5.17378E-03
            3205               1     27.9069E-03     27.0073E-03    -4.58220E-03    -4.73157E-03
            3206               1     33.4513E-03     32.1686E-03    -2.81589E-03    -3.15914E-03
            3207               1     36.7180E-03     34.9535E-03    -3.19194E-03    -3.32544E-03
            3208               1     37.5308E-03     36.4944E-03    -1.21840E-03    -1.16679E-03
            3209               1     62.8164E-03     63.9107E-03    -4.57682E-03    -4.12734E-03
            3210               1     56.9697E-03     58.0170E-03    -4.42437E-03    -4.52817E-03
            3211               1     50.8145E-03     51.8281E-03    -5.22119E-03    -5.14519E-03
            3212               1     44.8557E-03     45.7761E-03    -5.35388E-03    -5.16437E-03
            3213               1     39.0103E-03     39.8947E-03    -5.53580E-03    -5.55041E-03
            3214               1     33.3268E-03     34.0813E-03    -5.70318E-03    -5.51280E-03
            3215               1     27.7110E-03     28.5069E-03    -5.71908E-03    -5.72955E-03
            3216               1     22.4137E-03     23.0470E-03    -5.83938E-03    -5.68594E-03
            3217               1     17.3184E-03     17.9906E-03    -5.81347E-03    -5.80447E-03
            3218               1     13.1485E-03     13.5174E-03    -5.87077E-03    -5.74229E-03
            3219               1     10.5164E-03     10.6983E-03    -5.83398E-03    -5.81229E-03
            3220               1     10.9385E-03     10.5285E-03    -5.79572E-03    -5.68243E-03
            3221               1     14.2797E-03     13.6800E-03    -5.76991E-03    -5.74735E-03
            3222               1     18.6759E-03     17.8844E-03    -5.45620E-03    -5.38265E-03
            3223               1     24.3070E-03     23.3662E-03    -5.48622E-03    -5.46678E-03
            3224               1     29.4992E-03     28.3753E-03    -4.23648E-03    -4.35055E-03
            3225               1     34.5229E-03     33.1753E-03    -4.40298E-03    -4.37710E-03
            3226               1     37.9479E-03     36.4691E-03    -2.14006E-03    -2.23530E-03
            3227               1     39.9424E-03     38.2815E-03    -715.260E-06    -1.04742E-03
            3228               1     63.2744E-03     64.5795E-03    -5.21895E-03    -5.62376E-03
            3229               1     57.5094E-03     58.3252E-03    -5.92360E-03    -5.75144E-03
            3230               1     50.7349E-03     51.8748E-03    -5.33793E-03    -5.26462E-03
            3231               1     44.8234E-03     45.7521E-03    -5.22093E-03    -5.28870E-03
            3232               1     38.7456E-03     39.6099E-03    -5.04959E-03    -4.88778E-03
            3233               1     32.9098E-03     33.7447E-03    -4.84159E-03    -4.89676E-03
            3234               1     27.2060E-03     27.9174E-03    -4.82267E-03    -4.67085E-03
            3235               1     21.5808E-03     22.3199E-03    -4.68371E-03    -4.69887E-03
            3236               1     16.3791E-03     16.9464E-03    -4.73655E-03    -4.60583E-03
            3237               1     11.6359E-03     12.1776E-03    -4.69104E-03    -4.68110E-03
            3238               1     8.83547E-03     8.88811E-03    -4.79846E-03    -4.67912E-03
            3239               1     9.45755E-03     9.17248E-03    -4.86661E-03    -4.84329E-03
            3240               1     13.0839E-03     12.4294E-03    -4.98263E-03    -4.85923E-03
            3241               1     18.5121E-03     17.7667E-03    -5.23037E-03    -5.17498E-03
            3242               1     23.6568E-03     22.8138E-03    -5.05314E-03    -4.92919E-03
            3243               1     30.5975E-03     29.3612E-03    -5.57668E-03    -5.37837E-03
            3244               1     35.1873E-03     33.8265E-03    -3.60512E-03    -3.64715E-03
            3245               1     39.6260E-03     38.3726E-03    -2.94564E-03    -2.91358E-03
            3246               1     42.8902E-03     40.8896E-03     101.162E-06     334.831E-06
            3247               1     63.6334E-03     64.0003E-03    -7.45714E-03    -7.23381E-03
            3248               1     55.8228E-03     57.1447E-03    -6.26457E-03    -6.18643E-03
            3249               1     50.2506E-03     51.0749E-03    -5.52703E-03    -5.67238E-03
            3250               1     43.8488E-03     44.7874E-03    -4.89532E-03    -4.78809E-03
            3251               1     38.0724E-03     38.8993E-03    -4.30804E-03    -4.42962E-03
            3252               1     32.2001E-03     32.9630E-03    -4.02488E-03    -3.90374E-03
            3253               1     26.4558E-03     27.2075E-03    -3.66836E-03    -3.72045E-03
            3254               1     20.8606E-03     21.5218E-03    -3.59183E-03    -3.47710E-03
            3255               1     15.3475E-03     16.0125E-03    -3.43876E-03    -3.44840E-03
            3256               1     10.4472E-03     10.9217E-03    -3.52809E-03    -3.42382E-03
            3257               1     6.84956E-03     7.12976E-03    -3.56422E-03    -3.55529E-03
            3258               1     7.53952E-03     7.12955E-03    -3.82130E-03    -3.71169E-03
            3259               1     11.7474E-03     11.2219E-03    -4.07548E-03    -4.04429E-03
            3260               1     16.8257E-03     16.1685E-03    -4.47269E-03    -4.30974E-03
            3261               1     23.2744E-03     22.5065E-03    -5.02204E-03    -4.89029E-03
            3262               1     28.4230E-03     27.6673E-03    -5.18230E-03    -4.87084E-03
            3263               1     37.2595E-03     35.8852E-03    -5.82587E-03    -5.36955E-03
            3264               1     42.1164E-03     40.0758E-03    -2.10097E-03    -2.06062E-03
            3265               1     44.7911E-03     44.2921E-03     255.918E-06     52.4522E-06
            3266               1     59.9783E-03     61.1551E-03    -8.07249E-03    -7.64227E-03
            3267               1     54.6773E-03     55.2806E-03    -6.19971E-03    -6.47205E-03
            3268               1     48.1685E-03     49.0574E-03    -5.20393E-03    -5.10100E-03
            3269               1     42.6685E-03     43.3726E-03    -4.04765E-03    -4.22779E-03
            3270               1     36.8375E-03     37.5975E-03    -3.43076E-03    -3.35741E-03
            3271               1     31.2478E-03     31.9538E-03    -2.76745E-03    -2.85119E-03
            3272               1     25.6223E-03     26.3225E-03    -2.46590E-03    -2.38651E-03
            3273               1     20.0438E-03     20.7151E-03    -2.13600E-03    -2.16343E-03
            3274               1     14.5826E-03     15.2095E-03    -2.09180E-03    -2.01684E-03
            3275               1     9.23576E-03     9.83099E-03    -2.02570E-03    -2.02978E-03
            3276               1     4.96849E-03     5.26935E-03    -2.22880E-03    -2.15673E-03
            3277               1     5.10505E-03     4.83223E-03    -2.40720E-03    -2.40109E-03
            3278               1     9.66253E-03     9.12407E-03    -2.89164E-03    -2.79325E-03
            3279               1     15.2449E-03     14.7470E-03    -3.32632E-03    -3.28549E-03
            3280               1     20.6759E-03     20.2013E-03    -4.16502E-03    -3.93809E-03
            3281               1     27.6491E-03     27.1423E-03    -4.79825E-03    -4.61305E-03
            3282               1     33.1753E-03     32.8023E-03    -5.90470E-03    -5.28076E-03
            3283               1     46.0741E-03     45.1387E-03    -6.58142E-03    -5.63547E-03
            3284               1     52.3305E-03     48.3481E-03     929.393E-06     1.31531E-03
            3285               1     57.8215E-03     57.9970E-03    -6.88900E-03    -7.17239E-03
            3286               1     51.6175E-03     52.2013E-03    -5.70511E-03    -5.55344E-03
            3287               1     46.3580E-03     46.7227E-03    -3.87768E-03    -4.01957E-03
            3288               1     40.7954E-03     41.4711E-03    -2.91914E-03    -2.88562E-03
            3289               1     35.5479E-03     36.1113E-03    -1.91051E-03    -1.96883E-03
            3290               1     30.1268E-03     30.8387E-03    -1.31515E-03    -1.28849E-03
            3291               1     24.8141E-03     25.4376E-03    -780.333E-06    -800.825E-06
            3292               1     19.4216E-03     20.0928E-03    -524.454E-06    -496.893E-06
            3293               1     14.0597E-03     14.6666E-03    -325.249E-06    -330.431E-06
            3294               1     8.70088E-03     9.29650E-03    -373.830E-06    -347.775E-06
            3295               1     3.39824E-03     3.95314E-03    -453.668E-06    -455.028E-06
            3296               1     2.51612E-03     2.07041E-03    -810.810E-06    -780.853E-06
            3297               1     7.71004E-03     7.23505E-03    -1.14237E-03    -1.14130E-03
            3298               1     13.1080E-03     12.7094E-03    -1.88383E-03    -1.82101E-03
            3299               1     18.7559E-03     18.4255E-03    -2.38759E-03    -2.37248E-03
            3300               1     24.4674E-03     24.4029E-03    -3.80594E-03    -3.60524E-03
            3301               1     31.3708E-03     31.6117E-03    -4.19732E-03    -4.10376E-03
            3302               1     38.9646E-03     40.0241E-03    -7.66548E-03    -6.91944E-03
            3303               1     58.2253E-03     61.7684E-03    -6.81192E-03    -5.26503E-03
            3304               1     30.2689E-03     69.1341E-03     6.91674E-03     15.7002E-03
            3305               1     16.2625E-03     11.5725E-03    -2.29906E-03     103.155E-06
            3306               1     28.4129E-03     9.94756E-03    -3.76258E-03    -3.64130E-03
            3307               1     39.3682E-03     22.8365E-03    -10.4622E-03    -9.82258E-03
            3308               1     41.6191E-03     26.3901E-03    -11.2265E-03    -11.2144E-03
            3309               1     45.7660E-03     31.3552E-03    -14.4339E-03    -14.0506E-03
            3310               1     45.4689E-03     31.8225E-03    -14.4097E-03    -14.1736E-03
            3311               1     46.9402E-03     34.0479E-03    -15.6721E-03    -15.3765E-03
            3312               1     46.5428E-03     34.1646E-03    -15.5813E-03    -15.3018E-03
            3313               1     47.1154E-03     35.3662E-03    -16.1172E-03    -15.8327E-03
            3314               1     46.9103E-03     35.6703E-03    -16.1453E-03    -15.8625E-03
            3315               1     47.1381E-03     36.4543E-03    -16.3915E-03    -16.1059E-03
            3316               1     47.1615E-03     37.0329E-03    -16.6197E-03    -16.3348E-03
            3317               1     47.2678E-03     37.6864E-03    -16.7514E-03    -16.4807E-03
            3318               1     47.6861E-03     38.7124E-03    -17.4063E-03    -17.0923E-03
            3319               1     47.8350E-03     39.5334E-03    -17.6164E-03    -17.4444E-03
            3320               1     49.0980E-03     41.4200E-03    -19.4212E-03    -18.9491E-03
            3321               1     49.1157E-03     42.8303E-03    -20.2251E-03    -20.3747E-03
            3322               1     51.5105E-03     45.8501E-03    -24.3917E-03    -23.7973E-03
            3323               1     43.4041E-03     35.8366E-03     21.6699E-03     20.1780E-03
            3324               1     14.5094E-03     9.63354E-03    -4.25274E-03    -906.060E-06
            3325               1     36.5163E-03     25.8731E-03    -10.8102E-03    -9.18932E-03
            3326               1     39.4921E-03     30.5092E-03    -11.9275E-03    -11.8072E-03
            3327               1     45.4686E-03     35.4332E-03    -15.5634E-03    -14.4724E-03
            3328               1     43.4835E-03     34.9149E-03    -15.0601E-03    -14.5165E-03
            3329               1     45.5091E-03     36.8047E-03    -16.2369E-03    -15.4436E-03
            3330               1     44.3755E-03     36.2156E-03    -15.9627E-03    -15.2475E-03
            3331               1     45.2656E-03     37.3741E-03    -16.4384E-03    -15.7021E-03
            3332               1     44.7771E-03     37.2323E-03    -16.3637E-03    -15.6312E-03
            3333               1     45.2814E-03     38.0297E-03    -16.5974E-03    -15.8519E-03
            3334               1     45.0918E-03     38.2049E-03    -16.6475E-03    -15.9263E-03
            3335               1     45.4657E-03     38.8213E-03    -16.7543E-03    -15.9996E-03
            3336               1     45.4542E-03     39.2388E-03    -16.9490E-03    -16.2294E-03
            3337               1     45.8781E-03     39.8616E-03    -16.9369E-03    -16.2359E-03
            3338               1     46.1259E-03     40.5964E-03    -17.5181E-03    -16.7102E-03
            3339               1     46.7226E-03     41.5149E-03    -17.3955E-03    -16.9913E-03
            3340               1     47.6994E-03     42.7723E-03    -19.4083E-03    -18.2669E-03
            3341               1     48.2600E-03     45.1433E-03    -20.5062E-03    -20.6754E-03
            3342               1     42.6665E-03     32.2676E-03     21.8535E-03     16.8696E-03
            3343               1     18.8184E-03     24.3192E-03     958.136E-06    -1.92334E-03
            3344               1     35.2557E-03     32.4432E-03    -12.0230E-03    -11.6341E-03
            3345               1     45.1880E-03     40.5037E-03    -17.2789E-03    -15.9374E-03
            3346               1     42.3755E-03     39.3784E-03    -17.0156E-03    -16.1673E-03
            3347               1     44.6187E-03     40.7889E-03    -17.4815E-03    -16.4293E-03
            3348               1     42.6333E-03     39.4635E-03    -16.9361E-03    -16.0061E-03
            3349               1     43.4957E-03     40.1935E-03    -16.9687E-03    -16.0017E-03
            3350               1     42.6924E-03     39.5823E-03    -16.7757E-03    -15.8174E-03
            3351               1     43.2484E-03     40.2011E-03    -16.8266E-03    -15.8567E-03
            3352               1     42.9223E-03     40.0178E-03    -16.7765E-03    -15.8283E-03
            3353               1     43.3767E-03     40.5181E-03    -16.8172E-03    -15.8309E-03
            3354               1     43.1526E-03     40.4962E-03    -16.7903E-03    -15.8581E-03
            3355               1     43.6084E-03     40.9104E-03    -16.7485E-03    -15.7551E-03
            3356               1     43.2265E-03     40.8942E-03    -16.6901E-03    -15.7558E-03
            3357               1     43.8454E-03     41.2756E-03    -16.4412E-03    -15.5195E-03
            3358               1     43.1613E-03     41.3386E-03    -16.5880E-03    -15.5817E-03
            3359               1     44.6595E-03     42.3471E-03    -16.5373E-03    -15.8848E-03
            3360               1     45.8777E-03     43.8027E-03    -19.3591E-03    -17.7534E-03
            3361               1     48.2396E-03     50.3957E-03     20.2555E-03     15.8751E-03
            3362               1     39.0646E-03     36.3304E-03     75.8367E-06    -3.21458E-03
            3363               1     40.9487E-03     44.9282E-03    -15.0715E-03    -14.8314E-03
            3364               1     40.8276E-03     42.7743E-03    -18.5632E-03    -17.2423E-03
            3365               1     42.6507E-03     44.5069E-03    -18.3379E-03    -17.5089E-03
            3366               1     41.0895E-03     43.0176E-03    -18.3088E-03    -17.2303E-03
            3367               1     41.4802E-03     43.3356E-03    -17.5841E-03    -16.6623E-03
            3368               1     40.7182E-03     42.5592E-03    -17.4359E-03    -16.4579E-03
            3369               1     41.0627E-03     42.8514E-03    -17.1095E-03    -16.1448E-03
            3370               1     40.7652E-03     42.4768E-03    -17.0428E-03    -16.0901E-03
            3371               1     41.1403E-03     42.7562E-03    -16.9229E-03    -15.9422E-03
            3372               1     40.9303E-03     42.5071E-03    -16.8353E-03    -15.9002E-03
            3373               1     41.3491E-03     42.7440E-03    -16.7770E-03    -15.7745E-03
            3374               1     40.9096E-03     42.4028E-03    -16.5558E-03    -15.6476E-03
            3375               1     41.4506E-03     42.5310E-03    -16.4658E-03    -15.4101E-03
            3376               1     40.3394E-03     41.9939E-03    -15.9730E-03    -15.1334E-03
            3377               1     41.5935E-03     42.1766E-03    -15.9735E-03    -14.7958E-03
            3378               1     40.1642E-03     42.2941E-03    -15.6932E-03    -14.9741E-03
            3379               1     45.4821E-03     45.4662E-03    -17.7414E-03    -16.2466E-03
            3380               1     82.2848E-03     71.0403E-03     18.6510E-03     16.1713E-03
            3381               1     51.5177E-03     61.6335E-03    -11.9495E-03    -9.19989E-03
            3382               1     38.4581E-03     46.9819E-03    -16.6748E-03    -15.3259E-03
            3383               1     37.7829E-03     47.1495E-03    -16.5621E-03    -16.5167E-03
            3384               1     38.8601E-03     45.9602E-03    -18.8156E-03    -17.7024E-03
            3385               1     38.3173E-03     45.9818E-03    -17.5220E-03    -16.9794E-03
            3386               1     38.6345E-03     45.6861E-03    -18.0315E-03    -17.2093E-03
            3387               1     38.5121E-03     45.6460E-03    -17.2804E-03    -16.5620E-03
            3388               1     38.6112E-03     45.4140E-03    -17.3781E-03    -16.6406E-03
            3389               1     38.7278E-03     45.3786E-03    -17.0113E-03    -16.2649E-03
            3390               1     38.7266E-03     45.1071E-03    -16.9659E-03    -16.2466E-03
            3391               1     39.0026E-03     45.1050E-03    -16.8030E-03    -16.0449E-03
            3392               1     38.7920E-03     44.7027E-03    -16.6112E-03    -15.9100E-03
            3393               1     39.2414E-03     44.7089E-03    -16.5798E-03    -15.7822E-03
            3394               1     38.5544E-03     44.0665E-03    -16.1501E-03    -15.5050E-03
            3395               1     39.5295E-03     44.0927E-03    -16.3747E-03    -15.4016E-03
            3396               1     38.1389E-03     43.5771E-03    -15.6087E-03    -15.1560E-03
            3397               1     41.5618E-03     44.8149E-03    -16.8815E-03    -15.4415E-03
            3398               1     42.2855E-03     47.7451E-03    -16.8366E-03    -16.8205E-03
            3399               1     89.1065E-03     124.309E-03    -4.50793E-03     2.92247E-03
            3400               1     43.7568E-03     65.2435E-03    -14.2441E-03    -12.1143E-03
            3401               1     33.8120E-03     52.6594E-03    -11.8527E-03    -11.8590E-03
            3402               1     35.2362E-03     49.8594E-03    -16.9400E-03    -16.3113E-03
            3403               1     33.6469E-03     48.2131E-03    -15.9635E-03    -15.9644E-03
            3404               1     36.1094E-03     48.9581E-03    -17.9522E-03    -17.5467E-03
            3405               1     35.3751E-03     48.3693E-03    -17.0325E-03    -16.7947E-03
            3406               1     36.3929E-03     48.6654E-03    -17.5935E-03    -17.2900E-03
            3407               1     36.0717E-03     48.2142E-03    -16.9826E-03    -16.7005E-03
            3408               1     36.4883E-03     48.1364E-03    -17.0825E-03    -16.8015E-03
            3409               1     36.4887E-03     47.8004E-03    -16.7496E-03    -16.4597E-03
            3410               1     36.5921E-03     47.4849E-03    -16.6375E-03    -16.3650E-03
            3411               1     36.8505E-03     47.2487E-03    -16.5179E-03    -16.2162E-03
            3412               1     36.6447E-03     46.7137E-03    -16.2208E-03    -15.9688E-03
            3413               1     37.3313E-03     46.6488E-03    -16.3978E-03    -16.0412E-03
            3414               1     36.8618E-03     46.0986E-03    -15.9382E-03    -15.7633E-03
            3415               1     39.1004E-03     46.8334E-03    -16.9487E-03    -16.3611E-03
            3416               1     39.3030E-03     47.8607E-03    -16.5221E-03    -16.6073E-03
            3417               1     46.7044E-03     52.7903E-03    -19.4087E-03    -18.5311E-03
            3418               1     74.0692E-03     74.9058E-03    -29.6149E-03    -29.6297E-03
            3419               1     74.0236E-03     74.8598E-03    -29.6149E-03    -29.6297E-03
            3420               1     73.9781E-03     74.8139E-03    -29.6149E-03    -29.6297E-03
            3421               1     73.9326E-03     74.7680E-03    -29.6149E-03    -29.6297E-03
            3422               1     73.8872E-03     74.7221E-03    -29.6149E-03    -29.6297E-03
            3423               1     73.8418E-03     74.6762E-03    -29.6149E-03    -29.6297E-03
            3424               1     73.7964E-03     74.6303E-03    -29.6149E-03    -29.6297E-03
            3425               1     73.7510E-03     74.5845E-03    -29.6149E-03    -29.6297E-03
            3426               1     73.7056E-03     74.5387E-03    -29.6149E-03    -29.6297E-03
            3427               1     73.6603E-03     74.4929E-03    -29.6149E-03    -29.6297E-03
            3428               1     73.6150E-03     74.4472E-03    -29.6149E-03    -29.6297E-03
            3429               1     73.5697E-03     74.4014E-03    -29.6149E-03    -29.6297E-03
            3430               1     73.5245E-03     74.3557E-03    -29.6149E-03    -29.6297E-03
            3431               1     73.4793E-03     74.3101E-03    -29.6149E-03    -29.6297E-03
            3432               1     73.4341E-03     74.2644E-03    -29.6149E-03    -29.6297E-03
            3433               1     73.3889E-03     74.2188E-03    -29.6149E-03    -29.6297E-03
            3434               1     73.3438E-03     74.1732E-03    -29.6149E-03    -29.6297E-03
            3435               1     73.2987E-03     74.1276E-03    -29.6149E-03    -29.6297E-03
            3436               1     73.2536E-03     74.0821E-03    -29.6149E-03    -29.6297E-03
            3437               1     6.61321E-03     7.65625E-03    -3.43293E-03    -3.35119E-03
            3438               1     10.2884E-03     9.33256E-03    -5.61128E-03    -5.25670E-03
            3439               1     4.58157E-03     5.19790E-03    -2.63657E-03    -2.90856E-03
            3440               1     10.5593E-03     10.4531E-03    -5.79732E-03    -5.74537E-03
            3441               1     5.81373E-03     5.57045E-03    -2.30258E-03    -2.44763E-03
            3442               1     10.0500E-03     10.5300E-03    -5.10141E-03    -5.31172E-03
            3443               1     7.96864E-03     8.54355E-03    -2.36249E-03    -2.43292E-03
            3444               1     11.3889E-03     11.5829E-03    -5.00465E-03    -5.22189E-03
            3445               1     11.5466E-03     11.0681E-03    -2.51928E-03    -2.57975E-03
            3446               1     12.9227E-03     13.3583E-03    -5.30054E-03    -5.39534E-03
            3447               1     14.0526E-03     15.1656E-03    -3.02846E-03    -3.04555E-03
            3448               1     15.1957E-03     15.4004E-03    -5.68382E-03    -5.98205E-03
            3449               1     18.9989E-03     17.7805E-03    -3.95401E-03    -4.17270E-03
            3450               1     17.7416E-03     17.8230E-03    -7.10469E-03    -6.96352E-03
            3451               1     21.4971E-03     23.7544E-03    -5.38150E-03    -5.00114E-03
            3452               1     16.7249E-03     17.5120E-03    -7.18269E-03    -6.67405E-03
            3453               1     14.8878E-03     13.9873E-03    -956.222E-06    -1.20832E-03
            3454               1     18.7971E-03     17.6376E-03    -3.14073E-03    -3.02409E-03
            3455               1     17.9378E-03     18.0386E-03    -962.896E-06    -1.25448E-03
            3456               1     20.4259E-03     20.4462E-03    -3.56963E-03    -3.59318E-03
            3457               1     21.4841E-03     21.6634E-03    -1.19696E-03    -1.46121E-03
            3458               1     22.1984E-03     22.5853E-03    -3.60913E-03    -3.72281E-03
            3459               1     24.2078E-03     24.4610E-03    -1.64578E-03    -1.74612E-03
            3460               1     24.4887E-03     24.8173E-03    -3.75748E-03    -3.99240E-03
            3461               1     27.0715E-03     27.0461E-03    -1.92960E-03    -2.02647E-03
            3462               1     26.2641E-03     26.7392E-03    -4.21862E-03    -4.22002E-03
            3463               1     29.1712E-03     29.8637E-03    -2.42501E-03    -2.38085E-03
            3464               1     28.3968E-03     28.6157E-03    -4.46416E-03    -4.67429E-03
            3465               1     32.3838E-03     31.8558E-03    -2.93632E-03    -2.91116E-03
            3466               1     30.1136E-03     30.7354E-03    -5.37085E-03    -5.21196E-03
            3467               1     34.0997E-03     35.7594E-03    -3.99992E-03    -3.82538E-03
            3468               1     32.2651E-03     32.4002E-03    -6.08149E-03    -6.34062E-03
            3469               1     38.5947E-03     36.6421E-03    -5.51854E-03    -5.63099E-03
            3470               1     34.0222E-03     34.2001E-03    -8.09441E-03    -7.83240E-03
            3471               1     39.6484E-03     42.2649E-03    -7.41796E-03    -6.72701E-03
            3472               1     31.4306E-03     32.6020E-03    -8.45121E-03    -7.80778E-03
            3473               1     34.2052E-03     34.4002E-03     1.31066E-03     708.743E-06
            3474               1     33.7576E-03     33.1800E-03    -908.105E-06    -1.07164E-03
            3475               1     37.8962E-03     36.9224E-03     443.009E-06     137.106E-06
            3476               1     36.9991E-03     37.2439E-03    -1.59128E-03    -1.67374E-03
            3477               1     40.2638E-03     41.3535E-03    -443.085E-06    -763.263E-06
            3478               1     39.3753E-03     39.6417E-03    -2.41477E-03    -2.54464E-03
            3479               1     43.3054E-03     43.0150E-03    -1.35259E-03    -1.54807E-03
            3480               1     41.1649E-03     41.9935E-03    -2.94431E-03    -3.12810E-03
            3481               1     44.8298E-03     45.6736E-03    -1.78515E-03    -1.84172E-03
            3482               1     43.2818E-03     43.5295E-03    -3.56181E-03    -3.69576E-03
            3483               1     47.5958E-03     47.3870E-03    -2.37783E-03    -2.41197E-03
            3484               1     44.4652E-03     45.3114E-03    -4.13469E-03    -4.09114E-03
            3485               1     48.6888E-03     49.8216E-03    -3.04312E-03    -2.93764E-03
            3486               1     46.4454E-03     46.6296E-03    -4.66841E-03    -4.76727E-03
            3487               1     51.6797E-03     50.9349E-03    -3.76141E-03    -3.63965E-03
            3488               1     47.4568E-03     48.4409E-03    -5.80400E-03    -5.51784E-03
            3489               1     52.4022E-03     54.6058E-03    -5.22728E-03    -4.89655E-03
            3490               1     49.2085E-03     49.3344E-03    -6.78928E-03    -6.98176E-03
            3491               1     56.4636E-03     53.8836E-03    -7.20800E-03    -7.20937E-03
            3492               1     50.0857E-03     50.3603E-03    -9.20613E-03    -8.88441E-03
            3493               1     56.2211E-03     59.0673E-03    -9.47702E-03    -8.51026E-03
            3494               1     46.1137E-03     47.2615E-03    -9.81510E-03    -9.04460E-03
            3495               1     51.9784E-03     53.2383E-03     3.02821E-03     2.09608E-03
            3496               1     47.7593E-03     47.7277E-03     817.068E-06     410.522E-06
            3497               1     56.0735E-03     54.1941E-03     1.35920E-03     1.07962E-03
            3498               1     52.5299E-03     52.9334E-03    -61.2040E-06    -249.609E-06
            3499               1     57.3685E-03     59.1877E-03    -115.359E-06    -505.824E-06
            3500               1     55.0460E-03     55.2829E-03    -1.67645E-03    -1.72667E-03
            3501               1     60.4162E-03     59.8654E-03    -1.46657E-03    -1.67505E-03
            3502               1     56.4379E-03     57.6077E-03    -2.49362E-03    -2.73702E-03
            3503               1     61.1291E-03     62.3434E-03    -2.08468E-03    -2.14405E-03
            3504               1     58.4401E-03     58.6943E-03    -3.44971E-03    -3.52710E-03
            3505               1     63.7215E-03     63.4098E-03    -2.86537E-03    -2.86747E-03
            3506               1     59.0859E-03     60.2057E-03    -4.16144E-03    -4.09598E-03
            3507               1     64.0481E-03     65.4582E-03    -3.68867E-03    -3.53837E-03
            3508               1     60.8286E-03     61.0331E-03    -4.85082E-03    -4.88765E-03
            3509               1     66.7169E-03     65.8038E-03    -4.52643E-03    -4.32465E-03
            3510               1     61.2451E-03     62.4769E-03    -6.16309E-03    -5.78667E-03
            3511               1     66.5946E-03     69.1653E-03    -6.26407E-03    -5.80740E-03
            3512               1     62.5430E-03     62.6788E-03    -7.30318E-03    -7.45183E-03
            3513               1     70.1547E-03     67.0964E-03    -8.54371E-03    -8.44860E-03
            3514               1     62.6944E-03     63.0049E-03    -9.99048E-03    -9.62991E-03
            3515               1     68.8334E-03     71.7741E-03    -11.0464E-03    -9.87077E-03
            3516               1     57.6133E-03     58.6398E-03    -10.7787E-03    -9.91958E-03
            3517               1     65.6815E-03     67.8546E-03     3.63978E-03     2.41860E-03
            3518               1     58.6468E-03     59.1873E-03     1.45395E-03     933.675E-06
            3519               1     69.8183E-03     67.4169E-03     1.18109E-03     988.714E-06
            3520               1     64.7049E-03     65.1710E-03     453.980E-06     98.1639E-06
            3521               1     70.5067E-03     72.4572E-03    -905.917E-06    -1.34144E-03
            3522               1     66.7575E-03     67.3426E-03    -2.27555E-03    -1.90250E-03
            3523               1     72.4926E-03     72.6694E-03    -3.03639E-03    -3.00604E-03
            3524               1     68.0699E-03     69.1546E-03    -3.23638E-03    -3.70915E-03
            3525               1     73.7543E-03     73.5566E-03    -4.13748E-03    -4.03521E-03
            3526               1     69.0118E-03     70.0424E-03    -5.54774E-03    -4.99935E-03
            3527               1     73.9308E-03     76.2387E-03    -6.35646E-03    -5.79806E-03
            3528               1     69.5077E-03     70.0537E-03    -6.62462E-03    -7.01684E-03
            3529               1     76.5560E-03     73.4362E-03    -8.82610E-03    -8.67234E-03
            3530               1     69.5753E-03     69.7724E-03    -9.78274E-03    -9.35149E-03
            3531               1     74.6764E-03     77.4658E-03    -11.4968E-03    -10.2089E-03
            3532               1     63.7431E-03     64.6612E-03    -10.6769E-03    -9.85704E-03
            3533               1     49.6517E-03     47.9974E-03    -25.6811E-03    -26.8036E-03
            3534               1     61.1274E-03     66.0930E-03    -34.8325E-03    -35.9985E-03
            3535               1     47.4262E-03     45.7845E-03    -24.7816E-03    -24.4711E-03
            3536               1     71.9530E-03     68.4148E-03    -41.4598E-03    -39.0360E-03
            3537               1     54.8613E-03     52.7028E-03    -27.7841E-03    -25.4888E-03
            3538               1     77.1532E-03     72.1428E-03    -41.7446E-03    -39.3336E-03
            3539               1     60.0970E-03     56.3103E-03    -26.3884E-03    -23.5886E-03
            3540               1     78.4836E-03     78.4118E-03    -39.3752E-03    -37.3769E-03
            3541               1     55.6088E-03     59.1859E-03    -19.4401E-03    -19.2344E-03
            3542               1     87.0437E-03     80.8267E-03    -35.0641E-03    -33.0111E-03
            3543               1     49.6749E-03     60.3114E-03    -18.0065E-03    -19.3553E-03
            3544               1     82.6797E-03     97.0791E-03    -25.0252E-03    -27.1579E-03
            3545               1     73.2080E-03     74.0361E-03    -29.6149E-03    -29.6297E-03
            3546               1     73.1621E-03     73.9897E-03    -29.6149E-03    -29.6297E-03
            3547               1     36.4678E-03     44.3318E-03     3.15509E-03     2.56581E-03
            3548               1     49.0289E-03     38.4929E-03     3.57782E-03     3.72499E-03
            3549               1     38.4689E-03     44.8678E-03     3.03731E-03     3.65902E-03
            3550               1     40.3287E-03     39.6955E-03     3.48712E-03     3.53136E-03
            3551               1     39.2340E-03     38.3812E-03     3.69208E-03     3.67108E-03
            3552               1     35.0469E-03     39.5855E-03     4.07207E-03     3.57793E-03
            3553               1     39.6077E-03     32.8966E-03     3.62283E-03     3.45971E-03
            3554               1     29.9673E-03     33.5068E-03     3.95880E-03     4.54400E-03
            3555               1     32.5434E-03     39.3543E-03     4.89789E-03     4.34242E-03
            3556               1     43.4719E-03     34.2395E-03     5.21410E-03     5.44355E-03
            3557               1     34.1151E-03     39.3876E-03     4.61466E-03     5.51531E-03
            3558               1     35.4166E-03     34.9641E-03     4.89488E-03     5.30045E-03
            3559               1     34.5355E-03     34.2787E-03     5.02420E-03     5.32054E-03
            3560               1     32.5495E-03     33.4103E-03     5.12231E-03     5.11762E-03
            3561               1     31.5860E-03     31.2974E-03     5.20113E-03     4.89425E-03
            3562               1     30.1010E-03     29.3702E-03     5.36011E-03     4.95182E-03
            3563               1     27.1333E-03     29.3355E-03     5.49537E-03     4.78747E-03
            3564               1     29.3645E-03     24.7658E-03     5.15441E-03     4.83813E-03
            3565               1     22.7041E-03     24.6787E-03     5.23496E-03     5.64088E-03
            3566               1     26.2090E-03     31.4067E-03     6.39070E-03     5.89277E-03
            3567               1     34.2688E-03     27.3630E-03     6.72165E-03     6.84353E-03
            3568               1     26.7216E-03     30.8151E-03     6.17370E-03     6.90082E-03
            3569               1     27.4231E-03     27.1956E-03     6.42937E-03     6.71704E-03
            3570               1     26.4465E-03     26.3187E-03     6.51910E-03     6.72980E-03
            3571               1     24.7237E-03     25.2527E-03     6.59344E-03     6.57739E-03
            3572               1     23.6312E-03     23.3816E-03     6.65841E-03     6.40335E-03
            3573               1     22.3537E-03     21.7416E-03     6.78136E-03     6.45223E-03
            3574               1     20.2621E-03     21.0255E-03     6.85341E-03     6.34778E-03
            3575               1     20.5477E-03     18.3047E-03     6.66293E-03     6.37425E-03
            3576               1     17.1524E-03     17.6884E-03     6.66146E-03     6.89712E-03
            3577               1     20.5588E-03     23.8284E-03     7.83927E-03     7.45702E-03
            3578               1     25.3406E-03     21.1092E-03     8.15889E-03     8.15953E-03
            3579               1     20.1397E-03     22.7479E-03     7.72219E-03     8.18212E-03
            3580               1     20.2919E-03     20.1947E-03     7.95769E-03     8.05687E-03
            3581               1     19.3684E-03     19.3129E-03     8.02667E-03     8.04725E-03
            3582               1     18.1555E-03     18.2827E-03     8.08193E-03     7.98621E-03
            3583               1     17.2935E-03     16.9301E-03     8.14222E-03     7.93682E-03
            3584               1     16.3902E-03     16.1669E-03     8.21170E-03     7.97935E-03
            3585               1     15.6105E-03     15.2186E-03     8.13676E-03     7.91459E-03
            3586               1     14.9552E-03     14.6953E-03     8.10717E-03     8.15269E-03
            3587               1     17.6227E-03     18.8461E-03     9.28719E-03     9.04562E-03
            3588               1     19.2706E-03     17.6412E-03     9.52739E-03     9.40358E-03
            3589               1     17.0593E-03     17.8704E-03     9.28528E-03     9.44561E-03
            3590               1     17.0042E-03     16.8810E-03     9.44531E-03     9.36612E-03
            3591               1     16.6968E-03     16.5313E-03     9.47099E-03     9.38955E-03
            3592               1     16.3792E-03     16.3732E-03     9.41922E-03     9.43423E-03
            3593               1     16.5593E-03     16.2313E-03     9.52866E-03     9.36976E-03
            3594               1     16.2926E-03     16.3939E-03     9.39472E-03     9.30458E-03
            3595               1     47.8354E-03     57.7611E-03     1.96246E-03     1.34894E-03
            3596               1     64.0063E-03     49.9684E-03     2.54278E-03     2.62258E-03
            3597               1     51.8142E-03     60.1628E-03     2.03558E-03     2.62930E-03
            3598               1     54.1779E-03     53.0107E-03     2.05635E-03     1.84416E-03
            3599               1     53.0380E-03     51.5630E-03     1.85886E-03     2.12698E-03
            3600               1     47.5924E-03     54.2788E-03     1.89555E-03     1.37786E-03
            3601               1     53.8978E-03     43.9545E-03     1.40494E-03     1.41434E-03
            3602               1     40.4799E-03     45.6703E-03     1.93615E-03     2.57731E-03
            3603               1     43.0070E-03     52.1049E-03     3.42175E-03     2.71228E-03
            3604               1     57.3832E-03     44.6206E-03     4.23688E-03     4.02076E-03
            3605               1     46.5012E-03     52.9994E-03     3.57225E-03     3.93878E-03
            3606               1     47.3612E-03     46.6090E-03     3.87975E-03     3.39560E-03
            3607               1     47.1289E-03     45.5426E-03     3.62647E-03     3.55012E-03
            3608               1     43.5309E-03     44.9605E-03     3.37240E-03     3.42952E-03
            3609               1     43.3246E-03     42.1683E-03     3.23383E-03     3.38007E-03
            3610               1     40.6153E-03     40.2149E-03     2.92760E-03     3.39703E-03
            3611               1     37.1720E-03     40.8903E-03     3.30069E-03     3.02164E-03
            3612               1     40.4721E-03     33.5608E-03     2.67957E-03     2.90688E-03
            3613               1     30.7648E-03     34.0215E-03     3.36394E-03     3.96757E-03
            3614               1     34.0319E-03     41.5244E-03     4.73602E-03     4.11701E-03
            3615               1     45.1258E-03     34.9434E-03     5.42191E-03     5.21541E-03
            3616               1     35.9927E-03     41.1169E-03     4.87435E-03     5.16891E-03
            3617               1     36.0728E-03     35.4284E-03     5.09754E-03     4.70344E-03
            3618               1     35.3728E-03     34.1417E-03     4.91787E-03     4.86988E-03
            3619               1     32.0635E-03     33.0743E-03     4.69069E-03     4.75956E-03
            3620               1     31.1961E-03     30.4785E-03     4.61597E-03     4.73832E-03
            3621               1     28.6907E-03     28.5210E-03     4.37671E-03     4.70370E-03
            3622               1     25.8260E-03     27.8381E-03     4.66536E-03     4.46618E-03
            3623               1     26.5907E-03     22.9577E-03     4.23786E-03     4.36981E-03
            3624               1     20.8601E-03     22.0395E-03     4.67920E-03     5.07738E-03
            3625               1     24.1738E-03     29.5958E-03     6.00735E-03     5.55509E-03
            3626               1     31.2756E-03     24.3509E-03     6.49522E-03     6.33225E-03
            3627               1     24.4418E-03     27.8888E-03     6.11488E-03     6.34046E-03
            3628               1     23.7145E-03     23.2879E-03     6.20316E-03     5.98735E-03
            3629               1     22.5039E-03     21.9265E-03     6.11319E-03     6.15090E-03
            3630               1     19.7795E-03     20.4209E-03     5.90328E-03     6.01342E-03
            3631               1     18.3821E-03     18.0894E-03     5.91648E-03     6.01484E-03
            3632               1     16.1238E-03     16.6064E-03     5.95098E-03     5.85583E-03
            3633               1     14.9572E-03     14.3957E-03     5.87453E-03     5.84467E-03
            3634               1     13.2028E-03     12.7814E-03     5.92848E-03     6.09511E-03
            3635               1     16.0667E-03     18.8771E-03     7.19313E-03     6.95780E-03
            3636               1     18.7980E-03     15.8120E-03     7.50397E-03     7.39676E-03
            3637               1     15.1839E-03     16.5108E-03     7.24712E-03     7.40609E-03
            3638               1     14.1698E-03     14.1648E-03     7.27472E-03     7.20828E-03
            3639               1     13.5105E-03     13.3334E-03     7.24981E-03     7.24177E-03
            3640               1     12.7045E-03     12.6885E-03     7.23199E-03     7.24887E-03
            3641               1     12.7870E-03     12.5749E-03     7.35701E-03     7.24190E-03
            3642               1     12.4783E-03     12.8565E-03     7.18755E-03     7.12224E-03
            3643               1     57.5224E-03     70.1079E-03     1.18322E-03     32.6216E-06
            3644               1     78.3085E-03     60.9101E-03     2.04443E-03     771.087E-06
            3645               1     62.2486E-03     71.1729E-03     802.385E-06     253.823E-06
            3646               1     65.1250E-03     62.5280E-03     578.911E-06     319.196E-06
            3647               1     63.9141E-03     61.1071E-03    -43.2876E-06     412.317E-06
            3648               1     58.1399E-03     65.5849E-03    -221.993E-06     418.181E-06
            3649               1     68.0440E-03     54.9544E-03    -1.40938E-03    -121.833E-06
            3650               1     50.1842E-03     57.8487E-03    -478.259E-06     708.286E-06
            3651               1     52.5241E-03     64.6929E-03     2.27799E-03     1.01913E-03
            3652               1     71.4221E-03     55.3069E-03     2.98516E-03     1.58822E-03
            3653               1     55.9859E-03     63.8270E-03     2.12932E-03     1.22376E-03
            3654               1     57.2088E-03     55.5093E-03     1.91423E-03     1.18119E-03
            3655               1     55.6001E-03     54.1231E-03     1.71980E-03     1.41676E-03
            3656               1     52.2605E-03     53.2994E-03     1.53118E-03     1.62062E-03
            3657               1     51.6303E-03     50.5897E-03     1.21249E-03     1.69828E-03
            3658               1     49.9602E-03     48.6252E-03     1.12861E-03     2.02423E-03
            3659               1     45.9833E-03     51.2817E-03     823.823E-06     1.80717E-03
            3660               1     52.7253E-03     43.1811E-03     266.204E-06     1.48992E-03
            3661               1     39.0698E-03     44.7096E-03     863.701E-06     2.01960E-03
            3662               1     41.4935E-03     51.7471E-03     3.16032E-03     2.12216E-03
            3663               1     56.4449E-03     43.2153E-03     3.76756E-03     2.62473E-03
            3664               1     43.2061E-03     49.4292E-03     3.00516E-03     2.33991E-03
            3665               1     43.5054E-03     42.1425E-03     2.89464E-03     2.34586E-03
            3666               1     41.5746E-03     40.3904E-03     2.71996E-03     2.50908E-03
            3667               1     38.2973E-03     39.0361E-03     2.61024E-03     2.69459E-03
            3668               1     36.9533E-03     36.2995E-03     2.33282E-03     2.72279E-03
            3669               1     35.0266E-03     34.1969E-03     2.28394E-03     2.99310E-03
            3670               1     31.5519E-03     34.8882E-03     2.02006E-03     2.77938E-03
            3671               1     34.4724E-03     29.0746E-03     1.67945E-03     2.54187E-03
            3672               1     25.7817E-03     28.5355E-03     2.10163E-03     2.91863E-03
            3673               1     28.1572E-03     35.8749E-03     3.98073E-03     3.26648E-03
            3674               1     38.1561E-03     28.6301E-03     4.42871E-03     3.65832E-03
            3675               1     27.8907E-03     32.0753E-03     3.80475E-03     3.46963E-03
            3676               1     27.1883E-03     26.2227E-03     3.78801E-03     3.57401E-03
            3677               1     24.9609E-03     24.3248E-03     3.63607E-03     3.61330E-03
            3678               1     22.1156E-03     22.3886E-03     3.55165E-03     3.74786E-03
            3679               1     20.0020E-03     19.7468E-03     3.31711E-03     3.76440E-03
            3680               1     17.3217E-03     18.3624E-03     3.30976E-03     3.69189E-03
            3681               1     16.0890E-03     15.2472E-03     2.99890E-03     3.49093E-03
            3682               1     12.8764E-03     12.6222E-03     3.36260E-03     3.71219E-03
            3683               1     14.9613E-03     19.6065E-03     4.77029E-03     4.40271E-03
            3684               1     19.3415E-03     14.1736E-03     4.91593E-03     4.59157E-03
            3685               1     12.9609E-03     14.7971E-03     4.58507E-03     4.58007E-03
            3686               1     11.5032E-03     11.4530E-03     4.56875E-03     4.66824E-03
            3687               1     9.88452E-03     9.93381E-03     4.48907E-03     4.68648E-03
            3688               1     8.38068E-03     8.43867E-03     4.45643E-03     4.59363E-03
            3689               1     7.82203E-03     7.86466E-03     4.47258E-03     4.47581E-03
            3690               1     7.92642E-03     8.69016E-03     4.56547E-03     4.50530E-03
            3691               1     65.7063E-03     83.8538E-03    -1.09902E-03    -3.83054E-03
            3692               1     88.6828E-03     65.9829E-03    -891.073E-06    -2.79373E-03
            3693               1     68.0397E-03     79.8815E-03    -1.76842E-03    -1.61435E-03
            3694               1     71.0562E-03     68.7552E-03    -1.56522E-03    -2.01775E-03
            3695               1     70.0604E-03     67.2249E-03    -1.07808E-03    -476.947E-06
            3696               1     64.0432E-03     74.4919E-03    -943.939E-06    -846.995E-06
            3697               1     79.1204E-03     60.5095E-03    -1.83115E-03     191.960E-06
            3698               1     58.6544E-03     71.6656E-03    -1.55659E-03     1.14812E-03
            3699               1     60.6037E-03     78.0427E-03    -875.523E-06    -3.22425E-03
            3700               1     81.5391E-03     60.9842E-03    -337.731E-06    -2.13513E-03
            3701               1     62.2217E-03     72.4444E-03    -1.59882E-03    -1.19163E-03
            3702               1     62.4407E-03     62.3258E-03    -903.819E-06    -1.44506E-03
            3703               1     61.9211E-03     60.5470E-03    -723.862E-06    -604.184E-06
            3704               1     56.7083E-03     60.5722E-03    -545.581E-06    -443.817E-06
            3705               1     57.7021E-03     56.7719E-03    -111.130E-06    -132.710E-06
            3706               1     55.2282E-03     55.0737E-03    -145.980E-06     546.407E-06
            3707               1     51.8668E-03     59.1545E-03     587.072E-06     508.850E-06
            3708               1     62.7899E-03     49.2063E-03    -733.694E-06     1.13195E-03
            3709               1     46.6025E-03     56.6904E-03    -108.059E-06     1.99204E-03
            3710               1     48.0510E-03     62.6871E-03    -158.163E-06    -2.02923E-03
            3711               1     64.6147E-03     47.7010E-03     279.727E-06    -1.08374E-03
            3712               1     48.2777E-03     56.5672E-03    -679.288E-06    -292.564E-06
            3713               1     47.6476E-03     47.6010E-03    -149.234E-06    -569.054E-06
            3714               1     46.5373E-03     45.4291E-03     52.4040E-06     107.456E-06
            3715               1     41.6325E-03     44.5091E-03     109.044E-06     193.718E-06
            3716               1     41.3455E-03     40.7743E-03     517.487E-06     471.494E-06
            3717               1     38.8131E-03     38.6912E-03     428.898E-06     955.474E-06
            3718               1     35.6169E-03     40.2857E-03     976.394E-06     1.01939E-03
            3719               1     41.7168E-03     33.4216E-03    -23.4332E-06     1.40505E-03
            3720               1     30.9107E-03     36.7658E-03     427.005E-06     1.95022E-03
            3721               1     32.1539E-03     43.0480E-03     593.925E-06    -637.991E-06
            3722               1     43.1514E-03     30.9553E-03     879.857E-06     75.7729E-06
            3723               1     30.8125E-03     36.5988E-03     346.573E-06     671.211E-06
            3724               1     29.3274E-03     29.1336E-03     637.086E-06     367.311E-06
            3725               1     27.3652E-03     26.7877E-03     898.451E-06     876.845E-06
            3726               1     23.4928E-03     24.7260E-03     780.594E-06     838.534E-06
            3727               1     21.6266E-03     20.9282E-03     1.06630E-03     1.20290E-03
            3728               1     18.5411E-03     20.3937E-03     1.05338E-03     1.36624E-03
            3729               1     19.1266E-03     16.5897E-03     675.418E-06     1.46369E-03
            3730               1     14.2259E-03     15.4119E-03     770.138E-06     1.66498E-03
            3731               1     14.9363E-03     21.7276E-03     1.24649E-03     748.896E-06
            3732               1     19.9225E-03     13.0370E-03     1.48891E-03     1.19929E-03
            3733               1     12.0584E-03     14.8669E-03     1.26109E-03     1.57146E-03
            3734               1     9.41678E-03     9.71837E-03     1.49804E-03     1.33480E-03
            3735               1     7.63781E-03     6.68396E-03     1.55491E-03     1.52912E-03
            3736               1     4.04720E-03     4.28302E-03     1.36710E-03     1.67818E-03
            3737               1     2.47969E-03     3.31325E-03     1.36144E-03     1.57376E-03
            3738               1     2.19958E-03     4.49530E-03     1.19182E-03     1.38719E-03
            3739               1     70.9159E-03     90.6161E-03    -9.14315E-03    -8.14722E-03
            3740               1     95.1383E-03     73.6234E-03    -6.87781E-03    -6.14059E-03
            3741               1     69.0338E-03     85.7266E-03    -5.08810E-03    -5.13627E-03
            3742               1     74.8943E-03     73.8719E-03    -2.81317E-03    -3.00469E-03
            3743               1     73.7056E-03     72.7425E-03    -2.83352E-03    -2.62183E-03
            3744               1     64.9269E-03     79.9221E-03    -515.659E-06    -678.636E-06
            3745               1     85.1127E-03     67.2011E-03     1.00434E-03     612.438E-06
            3746               1     62.7984E-03     78.8882E-03     3.17743E-03     2.54623E-03
            3747               1     65.6777E-03     84.2449E-03    -8.63033E-03    -7.68024E-03
            3748               1     87.8652E-03     68.0801E-03    -6.88623E-03    -5.80920E-03
            3749               1     63.9057E-03     78.4306E-03    -4.96831E-03    -5.12612E-03
            3750               1     67.1406E-03     66.8517E-03    -3.75152E-03    -3.37899E-03
            3751               1     65.4200E-03     66.7013E-03    -3.42395E-03    -3.15596E-03
            3752               1     60.4986E-03     65.3899E-03    -2.34048E-03    -2.48305E-03
            3753               1     61.3001E-03     62.6417E-03    -1.66383E-03    -1.82470E-03
            3754               1     59.2339E-03     59.6104E-03    -1.02275E-03    -1.52400E-03
            3755               1     53.5286E-03     64.3211E-03    -82.1952E-06    -113.442E-06
            3756               1     67.6313E-03     54.3576E-03     1.63233E-03     968.037E-06
            3757               1     50.4686E-03     62.7623E-03     3.05935E-03     2.58447E-03
            3758               1     52.5415E-03     68.0764E-03    -7.07242E-03    -6.29987E-03
            3759               1     70.4790E-03     54.0845E-03    -5.66449E-03    -4.77603E-03
            3760               1     50.0880E-03     61.9241E-03    -4.24579E-03    -4.40342E-03
            3761               1     51.8531E-03     51.5036E-03    -3.25051E-03    -3.04015E-03
            3762               1     49.5527E-03     50.5473E-03    -3.09971E-03    -2.87644E-03
            3763               1     44.7866E-03     48.4712E-03    -2.17129E-03    -2.38247E-03
            3764               1     44.3024E-03     45.3533E-03    -1.75808E-03    -1.86289E-03
            3765               1     41.7381E-03     42.2451E-03    -1.15587E-03    -1.61087E-03
            3766               1     36.9055E-03     43.9408E-03    -497.530E-06    -592.089E-06
            3767               1     44.8173E-03     36.7242E-03     808.172E-06     386.956E-06
            3768               1     33.6717E-03     41.1627E-03     1.81544E-03     1.53354E-03
            3769               1     35.5703E-03     47.0234E-03    -5.09237E-03    -4.55257E-03
            3770               1     47.9810E-03     36.0321E-03    -4.13008E-03    -3.51179E-03
            3771               1     32.4148E-03     40.7589E-03    -3.34150E-03    -3.52455E-03
            3772               1     32.4784E-03     31.9148E-03    -2.60648E-03    -2.65154E-03
            3773               1     29.3675E-03     30.2069E-03    -2.69201E-03    -2.55561E-03
            3774               1     25.1852E-03     27.2476E-03    -1.85847E-03    -2.20643E-03
            3775               1     23.4282E-03     23.2836E-03    -1.71968E-03    -1.84822E-03
            3776               1     18.9139E-03     22.0566E-03    -1.13894E-03    -1.39970E-03
            3777               1     20.1625E-03     17.6370E-03    -416.122E-06    -475.025E-06
            3778               1     15.4197E-03     17.5987E-03     156.359E-06     68.6351E-06
            3779               1     16.9739E-03     23.8907E-03    -3.03934E-03    -2.77320E-03
            3780               1     23.1723E-03     16.2334E-03    -2.62549E-03    -2.25024E-03
            3781               1     13.2613E-03     17.4496E-03    -2.40409E-03    -2.72367E-03
            3782               1     10.9708E-03     10.8335E-03    -2.16779E-03    -2.32884E-03
            3783               1     7.97114E-03     8.21833E-03    -2.15845E-03    -2.27320E-03
            3784               1     4.54560E-03     4.55598E-03    -1.82077E-03    -2.16641E-03
            3785               1     3.27877E-03     2.51876E-03    -1.63248E-03    -1.39529E-03
            3786               1     2.69740E-03     4.43335E-03    -1.48849E-03    -1.41012E-03
            3787               1     81.4023E-03     90.6694E-03    -18.2261E-03    -14.0167E-03
            3788               1     90.8358E-03     74.2250E-03    -14.0145E-03    -11.5552E-03
            3789               1     73.9026E-03     82.2380E-03    -5.69315E-03    -7.33100E-03
            3790               1     77.5493E-03     74.1473E-03    -6.04976E-03    -4.39255E-03
            3791               1     75.3986E-03     73.1797E-03    -2.56005E-03    -4.06674E-03
            3792               1     70.2346E-03     76.8685E-03    -2.61121E-03    -1.26788E-03
            3793               1     79.9781E-03     66.2828E-03     4.69552E-03     2.53684E-03
            3794               1     68.8901E-03     77.2110E-03     9.30918E-03     5.54562E-03
            3795               1     76.0138E-03     84.8544E-03    -17.5308E-03    -13.6802E-03
            3796               1     84.4583E-03     68.9025E-03    -13.9426E-03    -11.6949E-03
            3797               1     67.6264E-03     75.7241E-03    -6.41023E-03    -7.92806E-03
            3798               1     70.9430E-03     66.8656E-03    -7.01966E-03    -5.69200E-03
            3799               1     66.9278E-03     67.7133E-03    -5.07419E-03    -5.36278E-03
            3800               1     65.6785E-03     64.9923E-03    -4.36301E-03    -4.36937E-03
            3801               1     63.2856E-03     63.7775E-03    -3.69047E-03    -3.53287E-03
            3802               1     62.5831E-03     59.9901E-03    -2.13663E-03    -3.18055E-03
            3803               1     57.1987E-03     62.4878E-03    -2.26532E-03    -1.39303E-03
            3804               1     63.7669E-03     53.1974E-03     3.46397E-03     1.64914E-03
            3805               1     54.1939E-03     60.3543E-03     7.27631E-03     4.25489E-03
            3806               1     62.6110E-03     70.1680E-03    -15.0501E-03    -11.9732E-03
            3807               1     68.8025E-03     55.9628E-03    -12.4039E-03    -10.6369E-03
            3808               1     53.6062E-03     60.4626E-03    -6.34843E-03    -7.66391E-03
            3809               1     55.5127E-03     52.1078E-03    -6.94486E-03    -5.87312E-03
            3810               1     51.2035E-03     51.8967E-03    -5.38829E-03    -5.64108E-03
            3811               1     49.2502E-03     48.7386E-03    -4.83428E-03    -4.83441E-03
            3812               1     46.4533E-03     46.7202E-03    -4.31674E-03    -4.24787E-03
            3813               1     44.6335E-03     43.0815E-03    -3.21899E-03    -3.93163E-03
            3814               1     40.0030E-03     43.1257E-03    -3.12471E-03    -2.70099E-03
            3815               1     42.1024E-03     35.7060E-03     769.491E-06    -549.740E-06
            3816               1     34.6944E-03     38.2738E-03     3.67269E-03     1.59403E-03
            3817               1     44.9530E-03     50.7345E-03    -11.7268E-03    -9.66416E-03
            3818               1     48.3576E-03     39.1648E-03    -10.2894E-03    -9.15430E-03
            3819               1     35.6477E-03     40.8198E-03    -6.16937E-03    -7.19353E-03
            3820               1     35.9224E-03     33.4011E-03    -6.71390E-03    -5.99271E-03
            3821               1     31.4039E-03     32.0126E-03    -5.67920E-03    -5.88190E-03
            3822               1     28.7397E-03     28.4880E-03    -5.26256E-03    -5.21816E-03
            3823               1     25.5095E-03     25.2507E-03    -4.68883E-03    -5.00397E-03
            3824               1     21.9727E-03     22.7109E-03    -4.34490E-03    -4.35598E-03
            3825               1     19.1201E-03     17.5718E-03    -2.47131E-03    -3.22376E-03
            3826               1     13.8727E-03     14.7130E-03    -601.102E-06    -1.61013E-03
            3827               1     25.6759E-03     29.4235E-03    -8.23658E-03    -7.28088E-03
            3828               1     26.3408E-03     21.4278E-03    -8.13811E-03    -7.68065E-03
            3829               1     17.0985E-03     20.2530E-03    -6.15458E-03    -6.83922E-03
            3830               1     16.3009E-03     14.8618E-03    -6.66998E-03    -6.33351E-03
            3831               1     12.6680E-03     13.1750E-03    -6.23746E-03    -6.28221E-03
            3832               1     10.6312E-03     10.8093E-03    -5.73986E-03    -6.08685E-03
            3833               1     10.3705E-03     10.3425E-03    -5.81905E-03    -5.94430E-03
            3834               1     9.50422E-03     10.9868E-03    -4.83657E-03    -4.85095E-03
            3947               1     23.5105E-03     41.0809E-03    -9.12342E-03    -8.63039E-03
            3948               1     52.7987E-03     66.5613E-03    -21.4250E-03    -20.7737E-03
            3949               1     48.3369E-03     30.9192E-03    -9.58728E-03    -9.22952E-03
            3950               1     47.2506E-03     38.7764E-03    -23.3179E-03    -21.9708E-03
            3951               1     28.5597E-03     36.7930E-03    -15.4001E-03    -16.3116E-03
            3952               1     60.0351E-03     72.4845E-03    -24.1492E-03    -25.5549E-03
            3953               1     29.2351E-03     30.9326E-03    -14.5870E-03    -14.3970E-03
            3954               1     65.1147E-03     59.8326E-03    -33.5748E-03    -31.1328E-03
            3955               1     36.6827E-03     29.9074E-03    -20.8694E-03    -16.8468E-03
            3956               1     61.0229E-03     56.3566E-03    -35.0670E-03    -32.3327E-03
            3957               1     26.7882E-03     27.1596E-03    -15.4086E-03    -15.3193E-03
            3958               1     62.8771E-03     57.8092E-03    -34.8343E-03    -32.3015E-03
            3959               1     29.6210E-03     33.3487E-03    -17.0098E-03    -17.9336E-03
            3960               1     55.7962E-03     66.5205E-03    -26.2829E-03    -27.5608E-03
            3961               1     12.4251E-03     12.6017E-03     7.15616E-03     7.12949E-03
            3962               1     12.4183E-03     12.8380E-03     7.15131E-03     7.14665E-03
            3963               1     14.1425E-03     12.6406E-03     7.26191E-03     7.15633E-03
            3964               1     13.0648E-03     14.7283E-03     7.13257E-03     6.97771E-03
            3965               1     15.9544E-03     15.6904E-03     9.09831E-03     9.03639E-03
            3966               1     16.4173E-03     16.1912E-03     9.31580E-03     9.02192E-03
            3967               1     17.1609E-03     16.7909E-03     9.19019E-03     9.02105E-03
            3968               1     18.4751E-03     18.0157E-03     9.26942E-03     9.03107E-03
            3969               1     19.6910E-03     19.4953E-03     9.18013E-03     8.98104E-03
            3970               1     21.2754E-03     21.4672E-03     9.15692E-03     9.08373E-03
            3971               1     23.3866E-03     23.1222E-03     9.11262E-03     9.13962E-03
            3972               1     24.9525E-03     24.8598E-03     9.07205E-03     9.15893E-03
            3973               1     25.3964E-03     28.9005E-03     8.84733E-03     9.29856E-03
            3974               1     33.2261E-03     26.6343E-03     9.32107E-03     9.23546E-03
            3975               1     26.2924E-03     31.8797E-03     8.96790E-03     8.52501E-03
            3976               1     24.8869E-03     24.7700E-03     10.7161E-03     10.8437E-03
            3977               1     28.7469E-03     26.5285E-03     10.7346E-03     10.3196E-03
            3978               1     29.4267E-03     30.1238E-03     10.9240E-03     10.4296E-03
            3979               1     32.1478E-03     31.4636E-03     10.7672E-03     10.3592E-03
            3980               1     34.2454E-03     34.6909E-03     10.6595E-03     10.4676E-03
            3981               1     36.9228E-03     36.7638E-03     10.5502E-03     10.5425E-03
            3982               1     38.7549E-03     38.4589E-03     10.4173E-03     10.5936E-03
            3983               1     38.3645E-03     44.0260E-03     10.0090E-03     10.7777E-03
            3984               1     49.5854E-03     39.3927E-03     10.7479E-03     10.7378E-03
            3985               1     38.0688E-03     46.0997E-03     10.2233E-03     9.53763E-03
            3986               1     36.3310E-03     38.0578E-03     12.3255E-03     12.6443E-03
            3987               1     44.5614E-03     39.1152E-03     12.2251E-03     11.6578E-03
            3988               1     43.1175E-03     45.3621E-03     12.6572E-03     11.7943E-03
            3989               1     46.9230E-03     45.9815E-03     12.3462E-03     11.7470E-03
            3990               1     49.3654E-03     49.9665E-03     12.1664E-03     11.8993E-03
            3991               1     52.2395E-03     52.2520E-03     11.9928E-03     12.0263E-03
            3992               1     54.1143E-03     53.6631E-03     11.7847E-03     12.1114E-03
            3993               1     52.7442E-03     60.5275E-03     11.1944E-03     12.3536E-03
            3994               1     67.2744E-03     53.4362E-03     12.2551E-03     12.3262E-03
            3995               1     50.9787E-03     61.4145E-03     11.5289E-03     10.5495E-03
            3996               1     7.03906E-03     7.19512E-03     3.97214E-03     3.93113E-03
            3997               1     7.17695E-03     8.54781E-03     4.03394E-03     4.05903E-03
            3998               1     10.5410E-03     7.75376E-03     4.10262E-03     4.05859E-03
            3999               1     8.73784E-03     12.2663E-03     3.89467E-03     3.80131E-03
            4000               1     11.0534E-03     10.3368E-03     5.89225E-03     5.92228E-03
            4001               1     11.4092E-03     12.0036E-03     5.78764E-03     5.77234E-03
            4002               1     13.7886E-03     13.5139E-03     5.95470E-03     5.85356E-03
            4003               1     16.2171E-03     16.1975E-03     5.75785E-03     5.83900E-03
            4004               1     18.9382E-03     18.8610E-03     5.91623E-03     5.97834E-03
            4005               1     21.3389E-03     21.9597E-03     5.86504E-03     5.93681E-03
            4006               1     25.3270E-03     24.4029E-03     6.07275E-03     6.04636E-03
            4007               1     27.2445E-03     26.8386E-03     6.12932E-03     5.84769E-03
            4008               1     28.9298E-03     33.3802E-03     6.05754E-03     6.22471E-03
            4009               1     38.5635E-03     29.0505E-03     6.40367E-03     6.20893E-03
            4010               1     29.2768E-03     37.4111E-03     5.89687E-03     5.42621E-03
            4011               1     26.0119E-03     26.1237E-03     7.05942E-03     7.37535E-03
            4012               1     32.6647E-03     29.1575E-03     6.85767E-03     6.81154E-03
            4013               1     33.2044E-03     35.4441E-03     7.06599E-03     6.80280E-03
            4014               1     37.9888E-03     37.2542E-03     6.99248E-03     7.15716E-03
            4015               1     40.7330E-03     41.7725E-03     6.97262E-03     7.10912E-03
            4016               1     45.4757E-03     44.3882E-03     7.38207E-03     7.38375E-03
            4017               1     47.3830E-03     46.7385E-03     7.51057E-03     7.10263E-03
            4018               1     48.3382E-03     55.4069E-03     7.38198E-03     7.75599E-03
            4019               1     61.7364E-03     47.2504E-03     8.01162E-03     7.71372E-03
            4020               1     46.4939E-03     57.8603E-03     7.17296E-03     6.37845E-03
            4021               1     43.1242E-03     45.9680E-03     8.33533E-03     8.94064E-03
            4022               1     55.7644E-03     47.5751E-03     7.88825E-03     7.87089E-03
            4023               1     53.3396E-03     58.0482E-03     8.30290E-03     7.85852E-03
            4024               1     59.5305E-03     58.4410E-03     8.17593E-03     8.48160E-03
            4025               1     62.7203E-03     63.8231E-03     8.17677E-03     8.36477E-03
            4026               1     67.8736E-03     66.6310E-03     8.82730E-03     8.79691E-03
            4027               1     69.6375E-03     68.6186E-03     9.00296E-03     8.40194E-03
            4028               1     69.7070E-03     79.5480E-03     8.80088E-03     9.37466E-03
            4029               1     87.0462E-03     67.1955E-03     9.73163E-03     9.31098E-03
            4030               1     65.3746E-03     80.1815E-03     8.52292E-03     7.33898E-03
            4031               1     2.51110E-03     2.00828E-03     616.719E-06     692.149E-06
            4032               1     2.35499E-03     5.50435E-03     540.020E-06     496.588E-06
            4033               1     9.38509E-03     4.64479E-03     656.321E-06     551.319E-06
            4034               1     6.38640E-03     11.4401E-03     661.222E-06     656.903E-06
            4035               1     7.23964E-03     5.30434E-03     2.02915E-03     2.28006E-03
            4036               1     8.69783E-03     9.69546E-03     1.94943E-03     2.17389E-03
            4037               1     12.3413E-03     12.6833E-03     1.85396E-03     2.26260E-03
            4038               1     16.1128E-03     15.8558E-03     2.09722E-03     2.50326E-03
            4039               1     19.2569E-03     19.2183E-03     2.04074E-03     2.30636E-03
            4040               1     22.5927E-03     23.0583E-03     2.28720E-03     2.39236E-03
            4041               1     26.9582E-03     26.0231E-03     2.24754E-03     2.19790E-03
            4042               1     30.0759E-03     29.3263E-03     2.40512E-03     2.19024E-03
            4043               1     31.7379E-03     36.9724E-03     2.39697E-03     2.04741E-03
            4044               1     44.9713E-03     33.0210E-03     3.02081E-03     2.21996E-03
            4045               1     32.7283E-03     43.2587E-03     2.60984E-03     1.92568E-03
            4046               1     29.4718E-03     30.6501E-03     2.72955E-03     3.40545E-03
            4047               1     39.0384E-03     34.3222E-03     2.06299E-03     2.98536E-03
            4048               1     38.4694E-03     41.4343E-03     2.67589E-03     3.35903E-03
            4049               1     43.4923E-03     42.6171E-03     2.70021E-03     3.44901E-03
            4050               1     46.9680E-03     47.2412E-03     3.13956E-03     3.45711E-03
            4051               1     51.6281E-03     50.4274E-03     3.27449E-03     3.17183E-03
            4052               1     55.0660E-03     53.4836E-03     3.59350E-03     3.14848E-03
            4053               1     55.8605E-03     64.0371E-03     3.65198E-03     2.95220E-03
            4054               1     74.7280E-03     56.3285E-03     4.75197E-03     3.31308E-03
            4055               1     54.5546E-03     69.6066E-03     3.95036E-03     2.68620E-03
            4056               1     51.4775E-03     56.6457E-03     3.44397E-03     4.64333E-03
            4057               1     68.9083E-03     58.3497E-03     2.35066E-03     3.93406E-03
            4058               1     63.7375E-03     69.5880E-03     3.44031E-03     4.52399E-03
            4059               1     70.1319E-03     68.6142E-03     3.49310E-03     4.61188E-03
            4060               1     73.9215E-03     73.9390E-03     4.16719E-03     4.60943E-03
            4061               1     78.9251E-03     77.3712E-03     4.39138E-03     4.16363E-03
            4062               1     82.6761E-03     80.2912E-03     4.92016E-03     4.12169E-03
            4063               1     82.5178E-03     93.9279E-03     4.99329E-03     3.88753E-03
            4064               1     107.582E-03     82.1405E-03     6.64806E-03     4.46066E-03
            4065               1     78.6518E-03     98.6906E-03     5.37499E-03     3.46194E-03
            4066               1     5.87331E-03     5.30490E-03    -2.99840E-03    -2.97835E-03
            4067               1     6.16822E-03     8.11994E-03    -3.07698E-03    -2.67977E-03
            4068               1     10.9742E-03     6.42420E-03    -2.85979E-03    -2.79391E-03
            4069               1     8.50191E-03     13.5721E-03    -2.85311E-03    -3.18073E-03
            4070               1     8.63168E-03     6.55887E-03    -1.79625E-03    -1.25167E-03
            4071               1     11.5197E-03     11.2663E-03    -2.06150E-03    -1.30935E-03
            4072               1     13.5146E-03     14.0396E-03    -1.49746E-03    -1.27609E-03
            4073               1     17.5740E-03     17.2933E-03    -1.79030E-03    -1.49995E-03
            4074               1     20.8998E-03     20.9055E-03    -1.57518E-03    -1.63278E-03
            4075               1     24.1058E-03     25.6253E-03    -1.98527E-03    -1.88984E-03
            4076               1     29.6644E-03     28.6405E-03    -1.80481E-03    -1.81447E-03
            4077               1     32.2219E-03     32.4500E-03    -2.08877E-03    -2.28062E-03
            4078               1     34.9134E-03     41.3278E-03    -2.34098E-03    -1.92166E-03
            4079               1     49.5226E-03     35.2058E-03    -1.87689E-03    -2.59899E-03
            4080               1     36.7927E-03     50.2655E-03    -2.08258E-03    -3.29337E-03
            4081               1     34.2525E-03     38.4630E-03    -1.29973E-03     409.305E-06
            4082               1     46.1047E-03     38.0813E-03    -1.55305E-03    -61.8566E-06
            4083               1     42.1557E-03     46.6715E-03    -784.772E-06    -360.754E-06
            4084               1     47.3062E-03     46.1124E-03    -796.054E-06    -548.627E-06
            4085               1     50.5473E-03     52.4601E-03    -1.36194E-03    -1.25900E-03
            4086               1     56.5600E-03     55.6239E-03    -1.08353E-03    -1.17452E-03
            4087               1     59.4536E-03     59.2908E-03    -1.63154E-03    -2.11199E-03
            4088               1     61.7210E-03     72.2894E-03    -2.07852E-03    -1.60070E-03
            4089               1     83.8874E-03     60.9562E-03    -1.12313E-03    -2.69955E-03
            4090               1     62.2393E-03     82.7686E-03    -1.59098E-03    -3.89543E-03
            4091               1     59.8972E-03     70.5289E-03    -583.261E-06     2.27930E-03
            4092               1     80.7555E-03     64.7699E-03    -1.01047E-03     1.37865E-03
            4093               1     70.2594E-03     78.7877E-03     249.535E-06     728.607E-06
            4094               1     76.5694E-03     74.9307E-03     136.418E-06     561.529E-06
            4095               1     80.1567E-03     82.5108E-03    -750.839E-06    -618.583E-06
            4096               1     86.7925E-03     85.9918E-03    -317.307E-06    -493.017E-06
            4097               1     89.8741E-03     89.3904E-03    -1.18488E-03    -1.93291E-03
            4098               1     91.7139E-03     106.879E-03    -1.81081E-03    -1.26720E-03
            4099               1     122.184E-03     89.7444E-03    -314.319E-06    -2.82023E-03
            4100               1     90.6349E-03     118.954E-03    -1.05234E-03    -4.59170E-03
            4101               1     11.0152E-03     10.5185E-03    -6.10805E-03    -6.06954E-03
            4102               1     11.3165E-03     12.8617E-03    -6.35096E-03    -6.39943E-03
            4103               1     15.7031E-03     12.5081E-03    -6.49316E-03    -6.49814E-03
            4104               1     13.8557E-03     17.2206E-03    -6.81457E-03    -6.68294E-03
            4105               1     11.7137E-03     11.0899E-03    -4.36830E-03    -4.25861E-03
            4106               1     13.6602E-03     13.7223E-03    -4.61539E-03    -4.61419E-03
            4107               1     16.4475E-03     17.5765E-03    -5.25585E-03    -5.48553E-03
            4108               1     20.1881E-03     21.0841E-03    -5.39876E-03    -5.81188E-03
            4109               1     24.2760E-03     24.7735E-03    -5.95797E-03    -6.00411E-03
            4110               1     27.0580E-03     29.1660E-03    -5.88484E-03    -6.28412E-03
            4111               1     32.6385E-03     32.9111E-03    -6.66631E-03    -6.53292E-03
            4112               1     36.0749E-03     35.7193E-03    -6.45755E-03    -6.54944E-03
            4113               1     37.1613E-03     45.9687E-03    -7.18453E-03    -7.49315E-03
            4114               1     54.7621E-03     41.0618E-03    -8.00328E-03    -7.29469E-03
            4115               1     41.1719E-03     53.9782E-03    -8.98504E-03    -8.28767E-03
            4116               1     36.3610E-03     42.9530E-03    -1.53162E-03    -1.80458E-03
            4117               1     48.4315E-03     40.8663E-03    -2.63131E-03    -2.89739E-03
            4118               1     42.7894E-03     50.1921E-03    -4.03846E-03    -4.45080E-03
            4119               1     50.8504E-03     50.5035E-03    -5.16266E-03    -5.38360E-03
            4120               1     53.4066E-03     57.1331E-03    -5.32992E-03    -6.03329E-03
            4121               1     60.0854E-03     61.6912E-03    -6.96666E-03    -6.67887E-03
            4122               1     64.8588E-03     64.0697E-03    -6.77772E-03    -6.90772E-03
            4123               1     64.2082E-03     79.4399E-03    -8.17658E-03    -8.55354E-03
            4124               1     92.1041E-03     69.7674E-03    -9.73298E-03    -8.65026E-03
            4125               1     68.5113E-03     89.5024E-03    -11.5007E-03    -10.4930E-03
            4126               1     63.5737E-03     77.5041E-03     1.57923E-03     947.708E-06
            4127               1     85.1620E-03     69.8231E-03    -332.971E-06    -957.389E-06
            4128               1     70.8086E-03     84.3220E-03    -2.64110E-03    -3.12376E-03
            4129               1     81.8514E-03     81.1703E-03    -4.50033E-03    -4.79339E-03
            4130               1     84.1608E-03     89.5565E-03    -4.71655E-03    -5.73514E-03
            4131               1     91.6404E-03     94.6788E-03    -7.30565E-03    -6.76376E-03
            4132               1     97.6049E-03     96.4372E-03    -7.09793E-03    -7.23412E-03
            4133               1     94.8442E-03     117.115E-03    -9.25643E-03    -9.65013E-03
            4134               1     133.907E-03     102.119E-03    -11.6327E-03    -10.1260E-03
            4135               1     99.2556E-03     129.225E-03    -14.2853E-03    -12.9117E-03
            4136               1     17.1738E-03     17.2780E-03    -9.90730E-03    -9.84101E-03
            4137               1     18.5332E-03     19.7925E-03    -10.6431E-03    -11.0777E-03
            4138               1     23.1752E-03     21.2531E-03    -11.8741E-03    -11.6738E-03
            4139               1     22.9617E-03     24.5349E-03    -11.5365E-03    -11.0088E-03
            4140               1     13.2519E-03     13.7251E-03    -6.78335E-03    -7.40589E-03
            4141               1     18.0364E-03     18.6758E-03    -8.58352E-03    -9.06879E-03
            4142               1     21.9668E-03     22.3118E-03    -9.42758E-03    -9.71057E-03
            4143               1     25.4608E-03     25.5813E-03    -9.85761E-03    -10.0929E-03
            4144               1     28.8087E-03     28.9090E-03    -10.1665E-03    -10.2707E-03
            4145               1     32.3012E-03     32.1428E-03    -10.4114E-03    -10.4724E-03
            4146               1     35.5828E-03     36.2409E-03    -10.7312E-03    -11.0045E-03
            4147               1     40.9047E-03     38.2387E-03    -11.7874E-03    -11.0809E-03
            4148               1     40.9762E-03     46.7754E-03    -11.0654E-03    -12.3694E-03
            4149               1     56.1660E-03     46.1039E-03    -15.6275E-03    -14.4469E-03
            4150               1     52.8210E-03     58.9468E-03    -16.7396E-03    -14.5685E-03
            4151               1     34.6179E-03     38.0060E-03    -1.36809E-03    -3.64665E-03
            4152               1     45.0704E-03     40.0478E-03    -5.00621E-03    -6.57511E-03
            4153               1     47.7819E-03     50.1039E-03    -9.15514E-03    -8.89410E-03
            4154               1     53.9355E-03     53.1085E-03    -9.58590E-03    -10.3329E-03
            4155               1     58.8685E-03     58.5627E-03    -10.7426E-03    -10.6841E-03
            4156               1     63.0495E-03     64.0298E-03    -11.5779E-03    -11.9593E-03
            4157               1     70.3388E-03     65.8796E-03    -13.4349E-03    -12.1865E-03
            4158               1     69.1497E-03     78.5055E-03    -12.5263E-03    -14.4587E-03
            4159               1     91.7382E-03     74.6399E-03    -20.3150E-03    -18.1643E-03
            4160               1     84.6315E-03     94.9313E-03    -23.0057E-03    -19.1916E-03
            4161               1     63.5196E-03     70.2455E-03     4.41430E-03     448.338E-06
            4162               1     78.4608E-03     67.0782E-03    -1.09561E-03    -3.75726E-03
            4163               1     76.8267E-03     81.9169E-03    -8.54011E-03    -7.78478E-03
            4164               1     85.3960E-03     83.2381E-03    -8.96263E-03    -10.2583E-03
            4165               1     90.6495E-03     90.3596E-03    -10.9799E-03    -10.8147E-03
            4166               1     95.4823E-03     96.7053E-03    -12.3168E-03    -12.8380E-03
            4167               1     104.311E-03     98.0462E-03    -15.0951E-03    -13.2331E-03
            4168               1     101.557E-03     114.720E-03    -13.9792E-03    -16.6297E-03
            4169               1     131.737E-03     107.041E-03    -25.3835E-03    -22.1283E-03
            4170               1     120.206E-03     135.083E-03    -29.8743E-03    -24.2196E-03
            4171               1     107.463E-03     113.438E-03    -18.8907E-03    -17.0603E-03
            4172               1     87.2009E-03     89.7833E-03    -20.0033E-03    -18.4762E-03
            4173               1     107.240E-03     102.149E-03    -14.3961E-03    -14.5782E-03
            4174               1     94.9621E-03     95.4513E-03    -18.9940E-03    -18.3649E-03
            4175               1     98.5788E-03     102.712E-03    -10.6606E-03    -10.1424E-03
            4176               1     92.5647E-03     92.9449E-03    -14.1250E-03    -14.8003E-03
            4177               1     96.2863E-03     95.0803E-03    -7.89446E-03    -7.84165E-03
            4178               1     88.9756E-03     90.6460E-03    -12.3961E-03    -11.9405E-03
            4179               1     90.4173E-03     92.0256E-03    -6.55285E-03    -6.45196E-03
            4180               1     86.0529E-03     86.8197E-03    -9.96775E-03    -10.5817E-03
            4181               1     86.6681E-03     87.0495E-03    -5.13750E-03    -5.46558E-03
            4182               1     82.2880E-03     83.4503E-03    -9.32109E-03    -9.26551E-03
            4183               1     81.8982E-03     82.0469E-03    -4.21258E-03    -4.53813E-03
            4184               1     78.8197E-03     80.0200E-03    -7.67190E-03    -8.42542E-03
            4185               1     76.1577E-03     77.7352E-03    -2.48288E-03    -3.27003E-03
            4186               1     74.4240E-03     75.1292E-03    -6.94516E-03    -7.09491E-03
            4187               1     70.4395E-03     68.8565E-03    -1.04613E-03    -1.69813E-03
            4188               1     69.9667E-03     70.2506E-03    -5.48037E-03    -5.80389E-03
            4189               1     63.0410E-03     63.0215E-03     323.387E-06    -871.549E-06
            4190               1     63.8324E-03     62.2882E-03    -4.34590E-03    -4.54036E-03
            4191               1     74.6317E-03     79.0215E-03    -15.1984E-03    -13.9753E-03
            4192               1     60.1446E-03     62.0078E-03    -16.6587E-03    -15.5179E-03
            4193               1     73.4117E-03     69.8387E-03    -12.0519E-03    -12.2703E-03
            4194               1     65.1531E-03     65.4076E-03    -16.0605E-03    -15.6300E-03
            4195               1     66.0838E-03     68.9871E-03    -9.41639E-03    -9.10974E-03
            4196               1     62.4795E-03     62.7544E-03    -12.5977E-03    -13.1246E-03
            4197               1     63.5715E-03     62.6445E-03    -7.56978E-03    -7.55965E-03
            4198               1     59.2062E-03     60.2919E-03    -11.4028E-03    -11.1378E-03
            4199               1     58.5543E-03     59.7124E-03    -6.68793E-03    -6.63861E-03
            4200               1     56.5062E-03     56.9898E-03    -9.79292E-03    -10.2380E-03
            4201               1     55.2404E-03     55.3408E-03    -5.81362E-03    -6.03302E-03
            4202               1     53.2851E-03     54.0821E-03    -9.40748E-03    -9.42485E-03
            4203               1     50.9675E-03     51.2434E-03    -5.30607E-03    -5.53065E-03
            4204               1     50.4005E-03     51.1367E-03    -8.46996E-03    -8.96943E-03
            4205               1     46.3612E-03     47.0906E-03    -4.34882E-03    -4.85762E-03
            4206               1     46.8453E-03     47.3990E-03    -8.14997E-03    -8.33619E-03
            4207               1     41.1362E-03     40.6959E-03    -3.74861E-03    -4.24895E-03
            4208               1     43.5993E-03     43.7673E-03    -7.60828E-03    -7.78784E-03
            4209               1     35.6790E-03     35.0763E-03    -3.18499E-03    -3.88675E-03
            4210               1     39.9363E-03     38.3767E-03    -6.88578E-03    -6.84643E-03
            4211               1     45.3451E-03     48.2249E-03    -11.8174E-03    -11.1442E-03
            4212               1     36.7224E-03     37.7851E-03    -13.5590E-03    -12.7799E-03
            4213               1     43.3602E-03     41.2875E-03    -9.91555E-03    -10.1670E-03
            4214               1     39.1814E-03     39.2255E-03    -13.3102E-03    -13.0469E-03
            4215               1     37.4213E-03     39.1917E-03    -8.23982E-03    -8.11152E-03
            4216               1     36.3495E-03     36.5936E-03    -11.1419E-03    -11.5203E-03
            4217               1     34.8518E-03     34.2728E-03    -7.18735E-03    -7.23227E-03
            4218               1     33.5104E-03     34.0395E-03    -10.3698E-03    -10.2305E-03
            4219               1     30.7877E-03     31.5144E-03    -6.66011E-03    -6.63283E-03
            4220               1     31.1843E-03     31.4594E-03    -9.50305E-03    -9.77886E-03
            4221               1     28.1535E-03     28.1090E-03    -6.30372E-03    -6.42820E-03
            4222               1     28.7443E-03     29.1270E-03    -9.25911E-03    -9.26425E-03
            4223               1     24.7450E-03     25.0159E-03    -6.05152E-03    -6.10873E-03
            4224               1     26.6845E-03     27.0677E-03    -8.97743E-03    -9.26393E-03
            4225               1     21.8403E-03     22.0309E-03    -6.02738E-03    -6.23517E-03
            4226               1     24.6460E-03     24.9339E-03    -8.95863E-03    -9.06622E-03
            4227               1     18.6835E-03     18.7470E-03    -5.87176E-03    -6.07524E-03
            4228               1     22.6906E-03     23.1953E-03    -8.97912E-03    -9.29930E-03
            4229               1     15.3467E-03     16.0959E-03    -6.08736E-03    -6.47123E-03
            4230               1     21.6588E-03     21.6353E-03    -9.42388E-03    -9.39916E-03
            4231               1     13.4142E-03     12.8581E-03    -6.32687E-03    -6.52740E-03
            4232               1     20.5661E-03     19.2181E-03    -9.06229E-03    -8.81248E-03
            4233               1     20.1583E-03     21.0966E-03    -9.93574E-03    -9.79875E-03
            4234               1     21.1704E-03     21.0655E-03    -11.8928E-03    -11.5466E-03
            4235               1     17.8110E-03     17.5559E-03    -9.12437E-03    -9.30812E-03
            4236               1     21.4733E-03     21.8813E-03    -11.9292E-03    -12.1335E-03
            4237               1     15.7134E-03     16.2341E-03    -8.86904E-03    -9.01980E-03
            4238               1     20.5911E-03     21.1377E-03    -11.5346E-03    -11.8637E-03
            4239               1     15.6933E-03     15.7620E-03    -9.05209E-03    -9.07961E-03
            4240               1     20.2628E-03     19.5016E-03    -11.3342E-03    -11.0485E-03
            4241               1     38.1297E-03     88.3878E-03    -1.54146E-03    -1.11379E-03
            4242               1     31.5613E-03     64.7056E-03    -17.5368E-03    -16.7540E-03
            4243               1     25.7422E-03     66.9206E-03    -11.3710E-03    -10.8610E-03
            4244               1     26.2274E-03     64.5499E-03    -12.4358E-03    -11.7249E-03
            4245               1     26.1472E-03     63.6071E-03    -11.9643E-03    -11.3945E-03
            4246               1     26.4218E-03     62.3980E-03    -12.0695E-03    -11.4052E-03
            4247               1     26.6251E-03     61.2461E-03    -12.0125E-03    -11.4086E-03
            4248               1     26.8832E-03     60.0961E-03    -12.0342E-03    -11.3937E-03
            4249               1     27.1216E-03     58.9468E-03    -12.0222E-03    -11.4020E-03
            4250               1     27.3763E-03     57.8018E-03    -12.0267E-03    -11.3979E-03
            4251               1     27.6331E-03     56.6568E-03    -12.0273E-03    -11.3971E-03
            4252               1     27.8789E-03     55.5259E-03    -12.0208E-03    -11.4035E-03
            4253               1     28.1669E-03     54.3700E-03    -12.0356E-03    -11.3891E-03
            4254               1     28.3762E-03     53.2776E-03    -12.0077E-03    -11.4150E-03
            4255               1     28.7433E-03     52.0799E-03    -12.0563E-03    -11.3733E-03
            4256               1     28.8290E-03     51.0562E-03    -11.9706E-03    -11.4286E-03
            4257               1     29.4614E-03     49.8483E-03    -12.1269E-03    -11.3801E-03
            4258               1     28.8858E-03     48.5583E-03    -11.7565E-03    -11.2826E-03
            4259               1     31.5728E-03     48.8849E-03    -12.7646E-03    -11.9690E-03
            4260               1     43.0659E-03     20.5009E-03     8.91916E-03     9.17259E-03
            4261               1     73.7360E-03     32.1899E-03    -14.7624E-03    -13.9795E-03
            4262               1     63.3193E-03     22.5963E-03    -10.7449E-03    -10.1704E-03
            4263               1     64.8686E-03     26.1469E-03    -12.3291E-03    -11.6936E-03
            4264               1     63.1741E-03     25.7557E-03    -12.0916E-03    -11.4575E-03
            4265               1     62.1774E-03     26.2539E-03    -12.1866E-03    -11.5697E-03
            4266               1     61.0186E-03     26.4460E-03    -12.1818E-03    -11.5463E-03
            4267               1     59.8776E-03     26.7318E-03    -12.1817E-03    -11.5603E-03
            4268               1     58.7434E-03     26.9814E-03    -12.1852E-03    -11.5552E-03
            4269               1     57.6085E-03     27.2476E-03    -12.1840E-03    -11.5573E-03
            4270               1     56.4768E-03     27.5148E-03    -12.1828E-03    -11.5585E-03
            4271               1     55.3508E-03     27.7790E-03    -12.1877E-03    -11.5535E-03
            4272               1     54.2280E-03     28.0579E-03    -12.1774E-03    -11.5643E-03
            4273               1     53.1042E-03     28.3233E-03    -12.1954E-03    -11.5446E-03
            4274               1     52.0027E-03     28.6100E-03    -12.1692E-03    -11.5785E-03
            4275               1     50.8709E-03     28.8889E-03    -12.1982E-03    -11.5224E-03
            4276               1     49.7941E-03     29.1643E-03    -12.2068E-03    -11.6328E-03
            4277               1     48.7392E-03     29.5166E-03    -12.0349E-03    -11.3774E-03
            4278               1     47.3340E-03     29.7800E-03    -12.9683E-03    -12.2845E-03
            4279               1     59.8647E-03     97.5204E-03     1.62283E-03     7.74636E-03
            4280               1     18.0957E-03     43.6598E-03    -6.70859E-03    -4.31842E-03
            4281               1     14.3817E-03     33.5127E-03    -7.42689E-03    -7.49278E-03
            4282               1     17.3370E-03     31.1897E-03    -9.96819E-03    -9.65819E-03
            4283               1     18.7576E-03     30.5495E-03    -10.8034E-03    -10.5264E-03
            4284               1     19.2415E-03     30.2379E-03    -11.0986E-03    -10.7086E-03
            4285               1     19.0408E-03     29.5312E-03    -10.9777E-03    -10.6856E-03
            4286               1     19.0341E-03     28.9489E-03    -10.9736E-03    -10.6172E-03
            4287               1     18.7843E-03     28.1555E-03    -10.8277E-03    -10.5119E-03
            4288               1     18.7377E-03     27.5173E-03    -10.8023E-03    -10.4686E-03
            4289               1     18.6236E-03     26.7428E-03    -10.7352E-03    -10.3966E-03
            4290               1     18.5553E-03     26.1478E-03    -10.6980E-03    -10.3877E-03
            4291               1     18.5323E-03     25.3566E-03    -10.6827E-03    -10.3193E-03
            4292               1     18.4363E-03     24.8492E-03    -10.6298E-03    -10.3467E-03
            4293               1     18.5044E-03     23.9818E-03    -10.6637E-03    -10.2705E-03
            4294               1     18.5682E-03     23.7802E-03    -10.7089E-03    -10.4609E-03
            4295               1     19.2025E-03     23.1960E-03    -11.0412E-03    -10.6088E-03
            4296               1     20.6007E-03     24.6886E-03    -11.8824E-03    -11.6034E-03
            4297               1     25.3405E-03     28.5304E-03    -14.2896E-03    -13.6787E-03
            4298               1     59.6533E-03     52.1139E-03     21.2134E-03     20.9306E-03
            4299               1     28.5447E-03     36.6023E-03    -7.49456E-03    -6.37264E-03
            4300               1     19.1230E-03     27.1535E-03    -10.0480E-03    -9.29121E-03
            4301               1     22.3444E-03     27.9040E-03    -12.1737E-03    -11.4054E-03
            4302               1     21.7363E-03     26.6937E-03    -11.9748E-03    -11.0350E-03
            4303               1     21.1071E-03     26.1669E-03    -11.5600E-03    -10.8531E-03
            4304               1     20.9688E-03     25.5047E-03    -11.5133E-03    -10.5861E-03
            4305               1     20.4949E-03     24.9851E-03    -11.2373E-03    -10.4893E-03
            4306               1     20.4317E-03     24.4163E-03    -11.2528E-03    -10.3851E-03
            4307               1     20.2235E-03     23.9246E-03    -11.1576E-03    -10.3438E-03
            4308               1     20.0962E-03     23.4810E-03    -11.1328E-03    -10.3351E-03
            4309               1     20.0641E-03     22.9374E-03    -11.1466E-03    -10.2596E-03
            4310               1     19.8113E-03     22.6231E-03    -11.0440E-03    -10.3227E-03
            4311               1     19.8989E-03     21.9459E-03    -11.1291E-03    -10.1655E-03
            4312               1     19.4446E-03     21.7105E-03    -10.9137E-03    -10.2626E-03
            4313               1     19.4836E-03     20.7281E-03    -10.9700E-03    -9.95675E-03
            4314               1     18.9764E-03     20.5743E-03    -10.7495E-03    -10.0826E-03
            4315               1     18.8704E-03     19.6403E-03    -10.5966E-03    -9.68587E-03
            4316               1     22.0777E-03     22.6819E-03    -12.4318E-03    -11.3946E-03
            4317               1     40.9861E-03     25.6184E-03     22.2801E-03     12.3443E-03
            4318               1     16.3192E-03     15.4088E-03     3.62174E-03     272.632E-06
            4319               1     27.5714E-03     25.2501E-03    -13.3133E-03    -11.6361E-03
            4320               1     25.3897E-03     23.6895E-03    -12.3616E-03    -11.0981E-03
            4321               1     25.1246E-03     23.9977E-03    -12.2439E-03    -11.4024E-03
            4322               1     24.1554E-03     22.6360E-03    -11.8783E-03    -10.7611E-03
            4323               1     23.3736E-03     22.2141E-03    -11.4643E-03    -10.5979E-03
            4324               1     23.0789E-03     21.5876E-03    -11.4769E-03    -10.3947E-03
            4325               1     22.6808E-03     21.3897E-03    -11.3451E-03    -10.4090E-03
            4326               1     22.4601E-03     21.0524E-03    -11.3680E-03    -10.3667E-03
            4327               1     22.2631E-03     20.8068E-03    -11.3728E-03    -10.3513E-03
            4328               1     21.9506E-03     20.6427E-03    -11.3142E-03    -10.4025E-03
            4329               1     21.9015E-03     20.2630E-03    -11.4088E-03    -10.2940E-03
            4330               1     21.4073E-03     20.2134E-03    -11.2208E-03    -10.4033E-03
            4331               1     21.3987E-03     19.5907E-03    -11.3311E-03    -10.1317E-03
            4332               1     20.5733E-03     19.4310E-03    -10.9275E-03    -10.1564E-03
            4333               1     19.9810E-03     18.1781E-03    -10.6636E-03    -9.47896E-03
            4334               1     19.6514E-03     18.4329E-03    -10.5697E-03    -9.75120E-03
            4335               1     17.7783E-03     17.0394E-03    -9.50477E-03    -8.98066E-03
            4336               1     42.2468E-03     38.7968E-03     22.0897E-03     21.9432E-03
            4337               1     10.0901E-03     8.80848E-03    -4.73439E-03    -3.43674E-03
            4338               1     25.5907E-03     16.2455E-03    -7.75922E-03    -7.05037E-03
            4339               1     28.4308E-03     20.1252E-03    -11.2062E-03    -10.4283E-03
            4340               1     27.5047E-03     19.5555E-03    -11.1740E-03    -10.2500E-03
            4341               1     27.1592E-03     19.8832E-03    -11.2932E-03    -10.5875E-03
            4342               1     26.4984E-03     19.3295E-03    -11.3388E-03    -10.4142E-03
            4343               1     26.0033E-03     19.4889E-03    -11.3057E-03    -10.5571E-03
            4344               1     25.5978E-03     19.2646E-03    -11.3691E-03    -10.5018E-03
            4345               1     25.1972E-03     19.3180E-03    -11.3864E-03    -10.5721E-03
            4346               1     24.7897E-03     19.2543E-03    -11.3896E-03    -10.5919E-03
            4347               1     24.4799E-03     19.1657E-03    -11.4604E-03    -10.5731E-03
            4348               1     24.0034E-03     19.2242E-03    -11.3809E-03    -10.6590E-03
            4349               1     23.8004E-03     18.9871E-03    -11.5048E-03    -10.5405E-03
            4350               1     23.2359E-03     19.1314E-03    -11.3206E-03    -10.6685E-03
            4351               1     23.0744E-03     18.7067E-03    -11.4186E-03    -10.4121E-03
            4352               1     22.6620E-03     19.0486E-03    -11.2565E-03    -10.5961E-03
            4353               1     22.1414E-03     18.4637E-03    -11.1552E-03    -10.3101E-03
            4354               1     25.3751E-03     22.0626E-03    -13.1260E-03    -12.1220E-03
            4355               1     31.1306E-03     68.5181E-03     6.60005E-03     13.0557E-03
            4356               1     13.5757E-03     18.2981E-03    -1.48533E-03     840.842E-06
            4357               1     22.2212E-03     9.38591E-03    -4.84486E-03    -4.85478E-03
            4358               1     28.1021E-03     13.5606E-03    -7.78259E-03    -7.50566E-03
            4359               1     30.2595E-03     16.8569E-03    -9.97786E-03    -9.69497E-03
            4360               1     30.1479E-03     17.5877E-03    -10.4850E-03    -10.1031E-03
            4361               1     29.9517E-03     18.5514E-03    -10.9727E-03    -10.6785E-03
            4362               1     29.4095E-03     18.6213E-03    -11.0790E-03    -10.7244E-03
            4363               1     28.8579E-03     18.9140E-03    -11.2112E-03    -10.8943E-03
            4364               1     28.2998E-03     18.9392E-03    -11.2458E-03    -10.9125E-03
            4365               1     27.7090E-03     19.0452E-03    -11.3114E-03    -10.9725E-03
            4366               1     27.1568E-03     19.0950E-03    -11.3145E-03    -11.0041E-03
            4367               1     26.5783E-03     19.1119E-03    -11.3742E-03    -11.0106E-03
            4368               1     26.0822E-03     19.2293E-03    -11.3642E-03    -11.0801E-03
            4369               1     25.5859E-03     19.2261E-03    -11.4635E-03    -11.0709E-03
            4370               1     25.3631E-03     19.6930E-03    -11.5795E-03    -11.3309E-03
            4371               1     25.3042E-03     20.1178E-03    -12.0022E-03    -11.5872E-03
            4372               1     26.1501E-03     22.2589E-03    -12.9885E-03    -12.7186E-03
            4373               1     28.3869E-03     26.1507E-03    -15.5526E-03    -15.0255E-03
            4374               1     76.6577E-03     78.2836E-03    -15.1634E-03    -15.6325E-03
            4375               1     67.6327E-03     69.4513E-03    -14.8047E-03    -14.4198E-03
            4376               1     60.0242E-03     61.6984E-03    -12.6936E-03    -12.9732E-03
            4377               1     52.9512E-03     54.9089E-03    -12.1273E-03    -12.0462E-03
            4378               1     46.3096E-03     48.2870E-03    -10.9564E-03    -11.1029E-03
            4379               1     40.0179E-03     42.1376E-03    -10.4968E-03    -10.4861E-03
            4380               1     33.9199E-03     36.0465E-03    -9.81346E-03    -9.89117E-03
            4381               1     28.3233E-03     30.4099E-03    -9.58125E-03    -9.58292E-03
            4382               1     23.0804E-03     25.0304E-03    -9.24268E-03    -9.28752E-03
            4383               1     19.0914E-03     20.6252E-03    -9.29007E-03    -9.29050E-03
            4384               1     16.4405E-03     17.3095E-03    -9.22382E-03    -9.25199E-03
            4385               1     16.8005E-03     16.5911E-03    -9.59068E-03    -9.57678E-03
            4386               1     19.1221E-03     18.0264E-03    -9.71270E-03    -9.72741E-03
            4387               1     23.9479E-03     22.2627E-03    -10.5012E-03    -10.4387E-03
            4388               1     29.3514E-03     27.4035E-03    -10.6533E-03    -10.6564E-03
            4389               1     36.6530E-03     34.6596E-03    -12.2595E-03    -12.0665E-03
            4390               1     44.8519E-03     42.9986E-03    -12.1001E-03    -12.0944E-03
            4391               1     56.4470E-03     54.9584E-03    -16.3539E-03    -15.8077E-03
            4392               1     82.3835E-03     82.1179E-03    -13.8865E-03    -13.3024E-03
            4393               1     79.3742E-03     81.2420E-03    -17.8235E-03    -16.8312E-03
            4394               1     71.3799E-03     72.9846E-03    -15.5977E-03    -16.1290E-03
            4395               1     62.7110E-03     64.5741E-03    -15.0550E-03    -14.7741E-03
            4396               1     55.7343E-03     57.6053E-03    -13.5727E-03    -13.9838E-03
            4397               1     48.8646E-03     50.7256E-03    -13.1086E-03    -13.0596E-03
            4398               1     42.4591E-03     44.3948E-03    -12.2050E-03    -12.4522E-03
            4399               1     36.4786E-03     38.2868E-03    -11.9124E-03    -11.9148E-03
            4400               1     30.7697E-03     32.5868E-03    -11.4127E-03    -11.5570E-03
            4401               1     26.0025E-03     27.5180E-03    -11.3566E-03    -11.3650E-03
            4402               1     21.9841E-03     23.2524E-03    -11.1736E-03    -11.2617E-03
            4403               1     20.1292E-03     20.6774E-03    -11.3917E-03    -11.3853E-03
            4404               1     20.1007E-03     19.9912E-03    -11.4694E-03    -11.5150E-03
            4405               1     22.8216E-03     21.8963E-03    -12.0021E-03    -11.9365E-03
            4406               1     27.0520E-03     25.7016E-03    -12.2656E-03    -12.2495E-03
            4407               1     32.6046E-03     30.8821E-03    -13.1775E-03    -12.9551E-03
            4408               1     40.1223E-03     38.2495E-03    -13.4820E-03    -13.3517E-03
            4409               1     47.1706E-03     45.2498E-03    -14.6234E-03    -14.1004E-03
            4410               1     63.4277E-03     61.1837E-03    -14.8684E-03    -14.3120E-03
            4411               1     68.6765E-03     65.4839E-03    -4.76636E-03    -4.49031E-03
            4412               1     83.7889E-03     84.2711E-03    -17.0281E-03    -16.9103E-03
            4413               1     72.6426E-03     74.6764E-03    -16.4006E-03    -16.1386E-03
            4414               1     65.7176E-03     67.2498E-03    -15.5932E-03    -16.0275E-03
            4415               1     57.7897E-03     59.6157E-03    -15.1107E-03    -15.0215E-03
            4416               1     51.2197E-03     52.9715E-03    -14.2320E-03    -14.5914E-03
            4417               1     44.6754E-03     46.3098E-03    -13.8918E-03    -13.8804E-03
            4418               1     38.6052E-03     40.2768E-03    -13.3054E-03    -13.5374E-03
            4419               1     33.1700E-03     34.5741E-03    -13.1616E-03    -13.1700E-03
            4420               1     28.2519E-03     29.6084E-03    -12.8770E-03    -13.0233E-03
            4421               1     24.8335E-03     25.7036E-03    -12.9550E-03    -12.9601E-03
            4422               1     22.7691E-03     23.3056E-03    -12.9462E-03    -13.0361E-03
            4423               1     23.2003E-03     22.9870E-03    -13.2444E-03    -13.2137E-03
            4424               1     25.6272E-03     24.9596E-03    -13.4845E-03    -13.5042E-03
            4425               1     29.5430E-03     28.3294E-03    -13.9155E-03    -13.7753E-03
            4426               1     35.6430E-03     34.0970E-03    -14.3111E-03    -14.1951E-03
            4427               1     40.7908E-03     39.0572E-03    -14.3137E-03    -13.9614E-03
            4428               1     51.0800E-03     48.8653E-03    -14.5084E-03    -14.1095E-03
            4429               1     55.6724E-03     53.4359E-03    -9.43877E-03    -9.15039E-03
            4430               1     59.5374E-03     58.2004E-03    -5.41110E-03    -4.95139E-03
            4431               1     81.7810E-03     83.5175E-03    -14.1661E-03    -14.8140E-03
            4432               1     75.0340E-03     75.9272E-03    -16.0450E-03    -16.1084E-03
            4433               1     66.3462E-03     68.2995E-03    -15.7708E-03    -15.8292E-03
            4434               1     59.9146E-03     61.3500E-03    -15.5819E-03    -15.8920E-03
            4435               1     52.7426E-03     54.3182E-03    -15.2665E-03    -15.2565E-03
            4436               1     46.5002E-03     47.9735E-03    -14.8174E-03    -15.0795E-03
            4437               1     40.4646E-03     41.7426E-03    -14.6346E-03    -14.6304E-03
            4438               1     34.9611E-03     36.2441E-03    -14.3274E-03    -14.5101E-03
            4439               1     30.4281E-03     31.3577E-03    -14.3068E-03    -14.3113E-03
            4440               1     26.8465E-03     27.6749E-03    -14.2158E-03    -14.3418E-03
            4441               1     25.1917E-03     25.4619E-03    -14.3405E-03    -14.3373E-03
            4442               1     25.4570E-03     25.4227E-03    -14.4753E-03    -14.5486E-03
            4443               1     27.5595E-03     26.9447E-03    -14.6308E-03    -14.5837E-03
            4444               1     31.9453E-03     30.9648E-03    -14.9632E-03    -14.9282E-03
            4445               1     35.9618E-03     34.6785E-03    -14.6616E-03    -14.5005E-03
            4446               1     43.2145E-03     41.3858E-03    -14.8648E-03    -14.6056E-03
            4447               1     46.9358E-03     45.1565E-03    -12.0775E-03    -11.8197E-03
            4448               1     52.1961E-03     50.2610E-03    -10.0694E-03    -9.63621E-03
            4449               1     55.7837E-03     53.3607E-03    -5.41551E-03    -4.88401E-03
            4450               1     80.3196E-03     81.5016E-03    -13.4120E-03    -13.2374E-03
            4451               1     73.6154E-03     75.4901E-03    -14.3707E-03    -14.8763E-03
            4452               1     67.5549E-03     68.6470E-03    -15.6660E-03    -15.7647E-03
            4453               1     60.2617E-03     61.8279E-03    -15.6315E-03    -15.7032E-03
            4454               1     54.0959E-03     55.2959E-03    -15.7115E-03    -15.9096E-03
            4455               1     47.6456E-03     48.8055E-03    -15.6094E-03    -15.5902E-03
            4456               1     41.8478E-03     42.9465E-03    -15.4517E-03    -15.6266E-03
            4457               1     36.5550E-03     37.4040E-03    -15.4142E-03    -15.4001E-03
            4458               1     31.9868E-03     32.8384E-03    -15.3139E-03    -15.4513E-03
            4459               1     28.7297E-03     29.1936E-03    -15.3420E-03    -15.3412E-03
            4460               1     26.9678E-03     27.3330E-03    -15.3718E-03    -15.4804E-03
            4461               1     27.0441E-03     26.9222E-03    -15.3778E-03    -15.3792E-03
            4462               1     29.3563E-03     29.0135E-03    -15.5458E-03    -15.6092E-03
            4463               1     32.2570E-03     31.5352E-03    -15.2046E-03    -15.1936E-03
            4464               1     37.6283E-03     36.4506E-03    -15.3983E-03    -15.3138E-03
            4465               1     41.0306E-03     39.7500E-03    -13.7200E-03    -13.6369E-03
            4466               1     46.2142E-03     44.3171E-03    -12.9073E-03    -12.6109E-03
            4467               1     48.9204E-03     47.0108E-03    -9.45592E-03    -9.06808E-03
            4468               1     51.3952E-03     49.6253E-03    -6.29955E-03    -6.00257E-03
            4469               1     77.8425E-03     79.2797E-03    -11.4764E-03    -12.1878E-03
            4470               1     72.6192E-03     73.7510E-03    -13.9712E-03    -13.8889E-03
            4471               1     66.5274E-03     67.9573E-03    -14.6823E-03    -14.9274E-03
            4472               1     60.6742E-03     61.6007E-03    -15.6607E-03    -15.7102E-03
            4473               1     54.2986E-03     55.3117E-03    -15.8632E-03    -15.8475E-03
            4474               1     48.4976E-03     49.3258E-03    -16.1017E-03    -16.2099E-03
            4475               1     42.8213E-03     43.5121E-03    -16.1830E-03    -16.1389E-03
            4476               1     37.7463E-03     38.4438E-03    -16.2150E-03    -16.3290E-03
            4477               1     33.4580E-03     33.8940E-03    -16.2473E-03    -16.2266E-03
            4478               1     30.2235E-03     30.6932E-03    -16.2519E-03    -16.3618E-03
            4479               1     28.4288E-03     28.5552E-03    -16.1964E-03    -16.2016E-03
            4480               1     28.5231E-03     28.6207E-03    -16.2142E-03    -16.3250E-03
            4481               1     29.8376E-03     29.6014E-03    -15.8853E-03    -15.9287E-03
            4482               1     33.3064E-03     32.9106E-03    -15.8808E-03    -15.9731E-03
            4483               1     36.4134E-03     35.7665E-03    -14.7780E-03    -14.8966E-03
            4484               1     41.1674E-03     39.8935E-03    -14.5432E-03    -14.4588E-03
            4485               1     43.8303E-03     42.5643E-03    -12.1558E-03    -12.1079E-03
            4486               1     46.8750E-03     44.8267E-03    -10.5593E-03    -10.3417E-03
            4487               1     48.2761E-03     46.2999E-03    -7.21830E-03    -6.55982E-03
            4488               1     74.8951E-03     76.0915E-03    -10.9987E-03    -10.9526E-03
            4489               1     70.6164E-03     71.6651E-03    -12.6096E-03    -12.9083E-03
            4490               1     65.3521E-03     66.1488E-03    -14.4302E-03    -14.3519E-03
            4491               1     59.8426E-03     60.5727E-03    -15.2539E-03    -15.2362E-03
            4492               1     54.3126E-03     54.8287E-03    -16.0936E-03    -16.0955E-03
            4493               1     48.7449E-03     49.1969E-03    -16.4953E-03    -16.4157E-03
            4494               1     43.5811E-03     44.0130E-03    -16.8376E-03    -16.8953E-03
            4495               1     38.8249E-03     39.0963E-03    -17.0115E-03    -16.9582E-03
            4496               1     34.7906E-03     35.1452E-03    -17.1237E-03    -17.2060E-03
            4497               1     31.6908E-03     31.8222E-03    -17.1026E-03    -17.0857E-03
            4498               1     29.9479E-03     30.1810E-03    -17.0723E-03    -17.1762E-03
            4499               1     29.4319E-03     29.4346E-03    -16.7748E-03    -16.8040E-03
            4500               1     30.7828E-03     30.8702E-03    -16.5865E-03    -16.7360E-03
            4501               1     32.7522E-03     32.6408E-03    -15.7729E-03    -15.9062E-03
            4502               1     36.1743E-03     36.0098E-03    -15.3405E-03    -15.5522E-03
            4503               1     39.3776E-03     38.9283E-03    -13.6767E-03    -14.0242E-03
            4504               1     43.0775E-03     41.5666E-03    -13.2196E-03    -13.1854E-03
            4505               1     44.2558E-03     43.1566E-03    -10.5880E-03    -10.4410E-03
            4506               1     45.8707E-03     43.5273E-03    -8.08544E-03    -8.25648E-03
            4507               1     71.9799E-03     72.6078E-03    -9.61031E-03    -9.89277E-03
            4508               1     67.6770E-03     68.3174E-03    -12.1460E-03    -12.0353E-03
            4509               1     63.5977E-03     63.8221E-03    -13.8320E-03    -13.7368E-03
            4510               1     58.6518E-03     58.8259E-03    -15.3187E-03    -15.2228E-03
            4511               1     53.7650E-03     53.8529E-03    -16.2799E-03    -16.1590E-03
            4512               1     48.8943E-03     48.9853E-03    -17.0911E-03    -17.0760E-03
            4513               1     44.2152E-03     44.2283E-03    -17.5755E-03    -17.4906E-03
            4514               1     39.9816E-03     40.0941E-03    -17.9489E-03    -17.9870E-03
            4515               1     36.2661E-03     36.2510E-03    -18.0807E-03    -18.0375E-03
            4516               1     33.4405E-03     33.5749E-03    -18.1443E-03    -18.2133E-03
            4517               1     31.4601E-03     31.4601E-03    -17.9273E-03    -17.9236E-03
            4518               1     30.8906E-03     31.0764E-03    -17.6942E-03    -17.8088E-03
            4519               1     31.1544E-03     31.2455E-03    -17.0292E-03    -17.0955E-03
            4520               1     32.7896E-03     33.1240E-03    -16.4101E-03    -16.6424E-03
            4521               1     34.9543E-03     35.1845E-03    -15.1349E-03    -15.3913E-03
            4522               1     37.4441E-03     37.8748E-03    -14.0687E-03    -14.5444E-03
            4523               1     40.7377E-03     40.7971E-03    -12.0155E-03    -12.8192E-03
            4524               1     43.8471E-03     41.4447E-03    -11.8923E-03    -11.9585E-03
            4525               1     41.6751E-03     41.1105E-03    -8.93527E-03    -8.26527E-03
            4526               1     67.2944E-03     67.3956E-03    -8.83979E-03    -8.84949E-03
            4527               1     64.9823E-03     64.4302E-03    -11.7075E-03    -11.4532E-03
            4528               1     61.0464E-03     60.7259E-03    -13.8255E-03    -13.7104E-03
            4529               1     57.3204E-03     56.8645E-03    -15.5748E-03    -15.4047E-03
            4530               1     53.1386E-03     52.8236E-03    -16.9475E-03    -16.8832E-03
            4531               1     49.0547E-03     48.7206E-03    -17.9209E-03    -17.8206E-03
            4532               1     45.1216E-03     44.9257E-03    -18.6917E-03    -18.6883E-03
            4533               1     41.4098E-03     41.1708E-03    -19.1076E-03    -19.0519E-03
            4534               1     38.2525E-03     38.1723E-03    -19.4073E-03    -19.4384E-03
            4535               1     35.5160E-03     35.3832E-03    -19.3541E-03    -19.3294E-03
            4536               1     33.7360E-03     33.7889E-03    -19.2336E-03    -19.2921E-03
            4537               1     32.4965E-03     32.5288E-03    -18.6982E-03    -18.7073E-03
            4538               1     32.4078E-03     32.6992E-03    -18.0973E-03    -18.2215E-03
            4539               1     32.8243E-03     33.1506E-03    -17.0085E-03    -17.0976E-03
            4540               1     33.8294E-03     34.6255E-03    -15.7485E-03    -16.0779E-03
            4541               1     35.6001E-03     36.4710E-03    -14.0504E-03    -14.4072E-03
            4542               1     36.3657E-03     38.0586E-03    -11.9393E-03    -12.8690E-03
            4543               1     39.7519E-03     41.4760E-03    -9.32017E-03    -11.0545E-03
            4544               1     43.0075E-03     38.2288E-03    -10.0429E-03    -10.8487E-03
            4545               1     63.5026E-03     61.6487E-03    -8.84397E-03    -8.60682E-03
            4546               1     61.2131E-03     59.9939E-03    -11.7590E-03    -11.7317E-03
            4547               1     58.9796E-03     57.7758E-03    -14.4771E-03    -14.3547E-03
            4548               1     55.9615E-03     55.1493E-03    -16.5069E-03    -16.4634E-03
            4549               1     52.9042E-03     52.1512E-03    -18.1035E-03    -18.0460E-03
            4550               1     49.7137E-03     49.1843E-03    -19.3744E-03    -19.3572E-03
            4551               1     46.4969E-03     46.0055E-03    -20.1812E-03    -20.1513E-03
            4552               1     43.5871E-03     43.2513E-03    -20.8324E-03    -20.8358E-03
            4553               1     40.7391E-03     40.4384E-03    -21.0288E-03    -21.0130E-03
            4554               1     38.5509E-03     38.3898E-03    -21.1534E-03    -21.1680E-03
            4555               1     36.4909E-03     36.3880E-03    -20.7962E-03    -20.7905E-03
            4556               1     35.3234E-03     35.3845E-03    -20.3880E-03    -20.4180E-03
            4557               1     34.2745E-03     34.4282E-03    -19.4495E-03    -19.4596E-03
            4558               1     33.9734E-03     34.3995E-03    -18.3750E-03    -18.4554E-03
            4559               1     33.8234E-03     34.4178E-03    -16.8101E-03    -16.8654E-03
            4560               1     33.5120E-03     34.7961E-03    -14.7544E-03    -15.0180E-03
            4561               1     33.7725E-03     35.6497E-03    -12.5329E-03    -12.7922E-03
            4562               1     31.5333E-03     35.7601E-03    -8.57812E-03    -9.62658E-03
            4563               1     32.3171E-03     41.9507E-03    -4.58470E-03    -7.62376E-03
            4564               1     52.3994E-03     53.7823E-03    -13.5392E-03    -13.8658E-03
            4565               1     46.5434E-03     47.8533E-03    -13.6365E-03    -13.3373E-03
            4566               1     41.4369E-03     42.7395E-03    -12.3692E-03    -12.5642E-03
            4567               1     37.1417E-03     38.4937E-03    -12.1962E-03    -12.1264E-03
            4568               1     33.0189E-03     34.4062E-03    -11.5045E-03    -11.6063E-03
            4569               1     29.4600E-03     30.8233E-03    -11.3203E-03    -11.3078E-03
            4570               1     26.0039E-03     27.3359E-03    -10.9010E-03    -10.9544E-03
            4571               1     23.2212E-03     24.3984E-03    -10.8163E-03    -10.8160E-03
            4572               1     20.6941E-03     21.6998E-03    -10.5811E-03    -10.6116E-03
            4573               1     19.2421E-03     19.8964E-03    -10.6469E-03    -10.6469E-03
            4574               1     18.3092E-03     18.5944E-03    -10.5433E-03    -10.5628E-03
            4575               1     18.8998E-03     18.6877E-03    -10.7880E-03    -10.7784E-03
            4576               1     19.9532E-03     19.3344E-03    -10.7405E-03    -10.7527E-03
            4577               1     22.6185E-03     21.6201E-03    -11.2259E-03    -11.1837E-03
            4578               1     25.3816E-03     24.1611E-03    -11.0962E-03    -11.1066E-03
            4579               1     30.0779E-03     28.7020E-03    -12.1004E-03    -11.9755E-03
            4580               1     35.1871E-03     33.8235E-03    -11.6050E-03    -11.6340E-03
            4581               1     43.9420E-03     42.6610E-03    -14.5073E-03    -14.1854E-03
            4582               1     63.6320E-03     62.8406E-03    -11.8688E-03    -11.7493E-03
            4583               1     54.3976E-03     55.5291E-03    -15.5987E-03    -14.8368E-03
            4584               1     48.9521E-03     50.1706E-03    -14.2595E-03    -14.6271E-03
            4585               1     43.5340E-03     44.7313E-03    -14.1143E-03    -13.8784E-03
            4586               1     39.0931E-03     40.4435E-03    -13.2041E-03    -13.4892E-03
            4587               1     35.1054E-03     36.2923E-03    -13.0270E-03    -12.9751E-03
            4588               1     31.3258E-03     32.6108E-03    -12.4614E-03    -12.6311E-03
            4589               1     28.1601E-03     29.2314E-03    -12.3434E-03    -12.3391E-03
            4590               1     25.1509E-03     26.2096E-03    -12.0157E-03    -12.1135E-03
            4591               1     23.0527E-03     23.8134E-03    -12.0235E-03    -12.0282E-03
            4592               1     21.3236E-03     21.9147E-03    -11.8761E-03    -11.9358E-03
            4593               1     20.9138E-03     21.0878E-03    -12.0446E-03    -12.0408E-03
            4594               1     21.0568E-03     20.9417E-03    -12.0285E-03    -12.0613E-03
            4595               1     22.6300E-03     22.0874E-03    -12.3798E-03    -12.3374E-03
            4596               1     24.7194E-03     23.9318E-03    -12.4211E-03    -12.4187E-03
            4597               1     27.9274E-03     26.8341E-03    -12.9803E-03    -12.8394E-03
            4598               1     32.2926E-03     31.0612E-03    -12.9524E-03    -12.8950E-03
            4599               1     36.8732E-03     35.5244E-03    -13.5651E-03    -13.2571E-03
            4600               1     48.2676E-03     46.7050E-03    -13.3519E-03    -13.1132E-03
            4601               1     51.1237E-03     49.3795E-03    -4.99743E-03    -4.89766E-03
            4602               1     57.0440E-03     57.3088E-03    -15.1185E-03    -15.0598E-03
            4603               1     49.8052E-03     51.0608E-03    -14.9568E-03    -14.7327E-03
            4604               1     45.4805E-03     46.5620E-03    -14.5488E-03    -14.8586E-03
            4605               1     40.7259E-03     41.8564E-03    -14.3682E-03    -14.2786E-03
            4606               1     36.7870E-03     37.9706E-03    -13.8194E-03    -14.0691E-03
            4607               1     33.1474E-03     34.1252E-03    -13.6670E-03    -13.6478E-03
            4608               1     29.7767E-03     30.8118E-03    -13.2831E-03    -13.4412E-03
            4609               1     27.1025E-03     27.8614E-03    -13.2304E-03    -13.2335E-03
            4610               1     24.7328E-03     25.4581E-03    -13.0329E-03    -13.1319E-03
            4611               1     23.4474E-03     23.8284E-03    -13.1156E-03    -13.1198E-03
            4612               1     22.7105E-03     22.9379E-03    -13.0830E-03    -13.1451E-03
            4613               1     23.2466E-03     23.0821E-03    -13.2996E-03    -13.2811E-03
            4614               1     24.5091E-03     24.1362E-03    -13.3933E-03    -13.4124E-03
            4615               1     26.6011E-03     25.8850E-03    -13.6565E-03    -13.5673E-03
            4616               1     29.8993E-03     28.9658E-03    -13.7727E-03    -13.7133E-03
            4617               1     32.6884E-03     31.5647E-03    -13.6035E-03    -13.3818E-03
            4618               1     39.1543E-03     37.7168E-03    -13.4256E-03    -13.2118E-03
            4619               1     41.2387E-03     39.8929E-03    -9.14972E-03    -8.95741E-03
            4620               1     43.4980E-03     42.5327E-03    -5.30153E-03    -4.88767E-03
            4621               1     55.0057E-03     56.1984E-03    -13.1524E-03    -13.6278E-03
            4622               1     51.1902E-03     51.7329E-03    -14.7702E-03    -14.8456E-03
            4623               1     45.8995E-03     47.1279E-03    -14.7838E-03    -14.8067E-03
            4624               1     42.1574E-03     43.0934E-03    -14.7396E-03    -14.9632E-03
            4625               1     38.0218E-03     38.9645E-03    -14.6051E-03    -14.5875E-03
            4626               1     34.4879E-03     35.4089E-03    -14.3147E-03    -14.4947E-03
            4627               1     31.2893E-03     31.9983E-03    -14.2242E-03    -14.2187E-03
            4628               1     28.4464E-03     29.1765E-03    -14.0159E-03    -14.1395E-03
            4629               1     26.4052E-03     26.8544E-03    -14.0251E-03    -14.0293E-03
            4630               1     24.8716E-03     25.2806E-03    -13.9588E-03    -14.0445E-03
            4631               1     24.4255E-03     24.5120E-03    -14.0641E-03    -14.0646E-03
            4632               1     24.7617E-03     24.7314E-03    -14.1335E-03    -14.1859E-03
            4633               1     25.9131E-03     25.5695E-03    -14.2369E-03    -14.2090E-03
            4634               1     28.1970E-03     27.6521E-03    -14.3783E-03    -14.3633E-03
            4635               1     30.0814E-03     29.3233E-03    -14.0583E-03    -13.9536E-03
            4636               1     34.1172E-03     32.9885E-03    -13.9458E-03    -13.7882E-03
            4637               1     35.3970E-03     34.2999E-03    -11.5336E-03    -11.3456E-03
            4638               1     38.0881E-03     36.7664E-03    -9.42102E-03    -9.08178E-03
            4639               1     39.6025E-03     38.0561E-03    -5.11688E-03    -4.75111E-03
            4640               1     53.5710E-03     54.2963E-03    -12.6652E-03    -12.6063E-03
            4641               1     49.8625E-03     51.1277E-03    -13.6912E-03    -14.0533E-03
            4642               1     46.6451E-03     47.2825E-03    -14.7570E-03    -14.8516E-03
            4643               1     42.4208E-03     43.3826E-03    -14.8474E-03    -14.8977E-03
            4644               1     39.0004E-03     39.7105E-03    -14.9324E-03    -15.0712E-03
            4645               1     35.4234E-03     36.0690E-03    -14.8856E-03    -14.8746E-03
            4646               1     32.3261E-03     32.9500E-03    -14.7783E-03    -14.8965E-03
            4647               1     29.6846E-03     30.1052E-03    -14.7591E-03    -14.7528E-03
            4648               1     27.5255E-03     27.9677E-03    -14.6923E-03    -14.7852E-03
            4649               1     26.2036E-03     26.3964E-03    -14.7222E-03    -14.7253E-03
            4650               1     25.6134E-03     25.7913E-03    -14.7451E-03    -14.8196E-03
            4651               1     25.8439E-03     25.7666E-03    -14.7565E-03    -14.7611E-03
            4652               1     27.1139E-03     26.9512E-03    -14.8442E-03    -14.8901E-03
            4653               1     28.3984E-03     28.0271E-03    -14.5605E-03    -14.5548E-03
            4654               1     31.1521E-03     30.4860E-03    -14.5335E-03    -14.4797E-03
            4655               1     32.1995E-03     31.4681E-03    -13.0908E-03    -13.0204E-03
            4656               1     34.5365E-03     33.3179E-03    -12.0066E-03    -11.7809E-03
            4657               1     34.9424E-03     33.7244E-03    -8.85257E-03    -8.55063E-03
            4658               1     35.4711E-03     34.3374E-03    -5.66476E-03    -5.37293E-03
            4659               1     51.4309E-03     52.4179E-03    -11.4539E-03    -11.9592E-03
            4660               1     49.0473E-03     49.6739E-03    -13.4580E-03    -13.4462E-03
            4661               1     45.7879E-03     46.7197E-03    -14.1474E-03    -14.3371E-03
            4662               1     42.7593E-03     43.2244E-03    -14.8836E-03    -14.9209E-03
            4663               1     39.1829E-03     39.7487E-03    -15.0440E-03    -15.0478E-03
            4664               1     36.0937E-03     36.5163E-03    -15.2131E-03    -15.2841E-03
            4665               1     33.0896E-03     33.4187E-03    -15.2552E-03    -15.2342E-03
            4666               1     30.5580E-03     30.9063E-03    -15.2779E-03    -15.3540E-03
            4667               1     28.5584E-03     28.7352E-03    -15.2912E-03    -15.2831E-03
            4668               1     27.1933E-03     27.4221E-03    -15.3034E-03    -15.3779E-03
            4669               1     26.5326E-03     26.5747E-03    -15.2634E-03    -15.2713E-03
            4670               1     26.7879E-03     26.8599E-03    -15.2817E-03    -15.3570E-03
            4671               1     27.3787E-03     27.2884E-03    -15.0347E-03    -15.0668E-03
            4672               1     29.1195E-03     28.9553E-03    -14.9741E-03    -15.0346E-03
            4673               1     30.1478E-03     29.8725E-03    -14.0840E-03    -14.1592E-03
            4674               1     32.2188E-03     31.4785E-03    -13.5980E-03    -13.5229E-03
            4675               1     32.4047E-03     31.6856E-03    -11.4688E-03    -11.4053E-03
            4676               1     32.8799E-03     31.5676E-03    -9.54889E-03    -9.34518E-03
            4677               1     32.3893E-03     31.0440E-03    -6.22578E-03    -5.71317E-03
            4678               1     49.1729E-03     49.8906E-03    -11.2033E-03    -11.2363E-03
            4679               1     47.4657E-03     48.1797E-03    -12.6400E-03    -12.8691E-03
            4680               1     45.0848E-03     45.3978E-03    -13.9859E-03    -13.9258E-03
            4681               1     42.1321E-03     42.5286E-03    -14.5817E-03    -14.6003E-03
            4682               1     39.3109E-03     39.4784E-03    -15.1795E-03    -15.1725E-03
            4683               1     36.3088E-03     36.4855E-03    -15.4251E-03    -15.3895E-03
            4684               1     33.6978E-03     33.8560E-03    -15.6628E-03    -15.6985E-03
            4685               1     31.3177E-03     31.3892E-03    -15.7521E-03    -15.7261E-03
            4686               1     29.4616E-03     29.6093E-03    -15.8361E-03    -15.8911E-03
            4687               1     28.0839E-03     28.1114E-03    -15.8003E-03    -15.7948E-03
            4688               1     27.4557E-03     27.5830E-03    -15.7936E-03    -15.8636E-03
            4689               1     27.2375E-03     27.2576E-03    -15.5644E-03    -15.5879E-03
            4690               1     27.9712E-03     28.0808E-03    -15.4337E-03    -15.5318E-03
            4691               1     28.5999E-03     28.6352E-03    -14.8061E-03    -14.8966E-03
            4692               1     30.0759E-03     30.0845E-03    -14.3961E-03    -14.5272E-03
            4693               1     30.7645E-03     30.6833E-03    -13.0406E-03    -13.2667E-03
            4694               1     31.7192E-03     30.8385E-03    -12.1720E-03    -12.1172E-03
            4695               1     30.5450E-03     29.8789E-03    -9.64545E-03    -9.49217E-03
            4696               1     29.6411E-03     28.2080E-03    -6.78183E-03    -6.84852E-03
            4697               1     46.9783E-03     47.4287E-03    -10.4984E-03    -10.6987E-03
            4698               1     45.6389E-03     45.7842E-03    -12.3472E-03    -12.2258E-03
            4699               1     43.7720E-03     43.8275E-03    -13.5209E-03    -13.4996E-03
            4700               1     41.4903E-03     41.3742E-03    -14.5897E-03    -14.5010E-03
            4701               1     38.9418E-03     38.8769E-03    -15.2056E-03    -15.1533E-03
            4702               1     36.5553E-03     36.4572E-03    -15.7782E-03    -15.7598E-03
            4703               1     34.1659E-03     34.0647E-03    -16.0655E-03    -16.0235E-03
            4704               1     32.1667E-03     32.1418E-03    -16.3290E-03    -16.3528E-03
            4705               1     30.3871E-03     30.3094E-03    -16.3801E-03    -16.3588E-03
            4706               1     29.1805E-03     29.2265E-03    -16.4339E-03    -16.4801E-03
            4707               1     28.2494E-03     28.2411E-03    -16.2432E-03    -16.2454E-03
            4708               1     28.0784E-03     28.2179E-03    -16.0935E-03    -16.1688E-03
            4709               1     27.9856E-03     28.1018E-03    -15.5720E-03    -15.6195E-03
            4710               1     28.6404E-03     28.9356E-03    -15.1290E-03    -15.2776E-03
            4711               1     29.0483E-03     29.3449E-03    -14.1264E-03    -14.3009E-03
            4712               1     29.6748E-03     30.1117E-03    -13.2443E-03    -13.5464E-03
            4713               1     29.8646E-03     30.2353E-03    -11.5719E-03    -12.1162E-03
            4714               1     29.8046E-03     28.4065E-03    -10.5750E-03    -10.5922E-03
            4715               1     25.9917E-03     25.5300E-03    -7.43591E-03    -6.89597E-03
            4716               1     44.1037E-03     43.8183E-03    -10.0256E-03    -9.90897E-03
            4717               1     43.6439E-03     43.1287E-03    -11.9254E-03    -11.7994E-03
            4718               1     42.2514E-03     41.7661E-03    -13.4684E-03    -13.3445E-03
            4719               1     40.5716E-03     40.1324E-03    -14.6096E-03    -14.5292E-03
            4720               1     38.7250E-03     38.3302E-03    -15.5932E-03    -15.5353E-03
            4721               1     36.7311E-03     36.3940E-03    -16.2120E-03    -16.1627E-03
            4722               1     34.9373E-03     34.6895E-03    -16.7573E-03    -16.7512E-03
            4723               1     33.1340E-03     32.8980E-03    -16.9954E-03    -16.9667E-03
            4724               1     31.7375E-03     31.6260E-03    -17.2086E-03    -17.2290E-03
            4725               1     30.3971E-03     30.2834E-03    -17.1180E-03    -17.1059E-03
            4726               1     29.6303E-03     29.6623E-03    -17.0392E-03    -17.0779E-03
            4727               1     28.8484E-03     28.8962E-03    -16.5952E-03    -16.6042E-03
            4728               1     28.7017E-03     28.9364E-03    -16.1775E-03    -16.2572E-03
            4729               1     28.3712E-03     28.6617E-03    -15.3062E-03    -15.3688E-03
            4730               1     28.3870E-03     28.9973E-03    -14.4124E-03    -14.6233E-03
            4731               1     28.1669E-03     28.8976E-03    -13.0457E-03    -13.2928E-03
            4732               1     27.3701E-03     28.7045E-03    -11.4964E-03    -12.1100E-03
            4733               1     26.5072E-03     28.2089E-03    -9.39057E-03    -10.5931E-03
            4734               1     25.5768E-03     22.9453E-03    -8.21558E-03    -8.77869E-03
            4735               1     41.2730E-03     39.8180E-03    -9.71483E-03    -9.59462E-03
            4736               1     41.2975E-03     40.2124E-03    -11.8883E-03    -11.8207E-03
            4737               1     40.8453E-03     39.9057E-03    -13.6913E-03    -13.6327E-03
            4738               1     39.9169E-03     39.1918E-03    -15.1623E-03    -15.1186E-03
            4739               1     38.6910E-03     38.0732E-03    -16.2228E-03    -16.1961E-03
            4740               1     37.4331E-03     36.9511E-03    -17.1275E-03    -17.1120E-03
            4741               1     35.9615E-03     35.5469E-03    -17.6408E-03    -17.6262E-03
            4742               1     34.7364E-03     34.4368E-03    -18.0990E-03    -18.1003E-03
            4743               1     33.3438E-03     33.1000E-03    -18.1799E-03    -18.1719E-03
            4744               1     32.3866E-03     32.2571E-03    -18.2654E-03    -18.2748E-03
            4745               1     31.2201E-03     31.1559E-03    -17.9410E-03    -17.9389E-03
            4746               1     30.5867E-03     30.6502E-03    -17.6476E-03    -17.6666E-03
            4747               1     29.6098E-03     29.7581E-03    -16.8764E-03    -16.8850E-03
            4748               1     29.0668E-03     29.3999E-03    -16.1062E-03    -16.1560E-03
            4749               1     28.0419E-03     28.5111E-03    -14.8230E-03    -14.8646E-03
            4750               1     26.9280E-03     27.8283E-03    -13.3803E-03    -13.5476E-03
            4751               1     25.2395E-03     26.5631E-03    -11.5103E-03    -11.7011E-03
            4752               1     21.9343E-03     24.8196E-03    -8.94876E-03    -9.64452E-03
            4753               1     16.4468E-03     23.5419E-03    -5.36445E-03    -7.51938E-03
            4754               1     31.8823E-03     32.9088E-03    -12.0044E-03    -12.1931E-03
            4755               1     29.4176E-03     30.0917E-03    -12.5571E-03    -12.3340E-03
            4756               1     27.0092E-03     27.7876E-03    -12.0807E-03    -12.1906E-03
            4757               1     25.6688E-03     26.2770E-03    -12.3136E-03    -12.2520E-03
            4758               1     24.1778E-03     24.8314E-03    -12.0930E-03    -12.1516E-03
            4759               1     23.2933E-03     23.8157E-03    -12.1853E-03    -12.1705E-03
            4760               1     22.2706E-03     22.7734E-03    -12.0324E-03    -12.0642E-03
            4761               1     21.7102E-03     22.0810E-03    -12.0722E-03    -12.0694E-03
            4762               1     21.0324E-03     21.3352E-03    -11.9348E-03    -11.9533E-03
            4763               1     20.8188E-03     20.9750E-03    -11.9690E-03    -11.9671E-03
            4764               1     20.4536E-03     20.5086E-03    -11.8086E-03    -11.8208E-03
            4765               1     20.6594E-03     20.5478E-03    -11.8606E-03    -11.8524E-03
            4766               1     20.6103E-03     20.3788E-03    -11.6139E-03    -11.6238E-03
            4767               1     21.4318E-03     21.0162E-03    -11.7246E-03    -11.7007E-03
            4768               1     21.8942E-03     21.3600E-03    -11.2907E-03    -11.3060E-03
            4769               1     24.0089E-03     23.2960E-03    -11.6514E-03    -11.5973E-03
            4770               1     26.0532E-03     25.2520E-03    -10.8375E-03    -10.8927E-03
            4771               1     31.8029E-03     30.8657E-03    -12.4086E-03    -12.3101E-03
            4772               1     45.1936E-03     44.0489E-03    -9.71065E-03    -10.0111E-03
            4773               1     33.3984E-03     33.7425E-03    -13.5249E-03    -12.9704E-03
            4774               1     30.6090E-03     31.3527E-03    -13.0063E-03    -13.2019E-03
            4775               1     28.5789E-03     29.0164E-03    -13.2715E-03    -13.0693E-03
            4776               1     26.7633E-03     27.4838E-03    -12.9164E-03    -13.0747E-03
            4777               1     25.6363E-03     26.0806E-03    -13.0345E-03    -12.9768E-03
            4778               1     24.3841E-03     24.9612E-03    -12.8085E-03    -12.9069E-03
            4779               1     23.6605E-03     24.0263E-03    -12.8558E-03    -12.8443E-03
            4780               1     22.8074E-03     23.2027E-03    -12.6985E-03    -12.7566E-03
            4781               1     22.4327E-03     22.6527E-03    -12.7377E-03    -12.7367E-03
            4782               1     21.9419E-03     22.1311E-03    -12.6129E-03    -12.6485E-03
            4783               1     21.9551E-03     21.9748E-03    -12.6755E-03    -12.6686E-03
            4784               1     21.8215E-03     21.7797E-03    -12.5395E-03    -12.5612E-03
            4785               1     22.2844E-03     22.0587E-03    -12.6366E-03    -12.6089E-03
            4786               1     22.5968E-03     22.2958E-03    -12.4232E-03    -12.4323E-03
            4787               1     23.6856E-03     23.1949E-03    -12.5609E-03    -12.4998E-03
            4788               1     25.1047E-03     24.5247E-03    -12.1896E-03    -12.1920E-03
            4789               1     27.2104E-03     26.5277E-03    -12.2389E-03    -12.1599E-03
            4790               1     33.7201E-03     32.8889E-03    -11.6226E-03    -11.6636E-03
            4791               1     34.1998E-03     33.8589E-03    -5.02570E-03    -5.11780E-03
            4792               1     34.3880E-03     34.4516E-03    -13.2886E-03    -13.2468E-03
            4793               1     31.1992E-03     31.6381E-03    -13.6074E-03    -13.4067E-03
            4794               1     29.5383E-03     30.1287E-03    -13.5980E-03    -13.7706E-03
            4795               1     27.9779E-03     28.3725E-03    -13.7394E-03    -13.6444E-03
            4796               1     26.6219E-03     27.2086E-03    -13.5354E-03    -13.6807E-03
            4797               1     25.6553E-03     25.9948E-03    -13.5746E-03    -13.5470E-03
            4798               1     24.6427E-03     25.0875E-03    -13.4008E-03    -13.4954E-03
            4799               1     24.0627E-03     24.3040E-03    -13.4220E-03    -13.4187E-03
            4800               1     23.4262E-03     23.6980E-03    -13.3064E-03    -13.3656E-03
            4801               1     23.2338E-03     23.3337E-03    -13.3524E-03    -13.3511E-03
            4802               1     22.9974E-03     23.0830E-03    -13.2774E-03    -13.3148E-03
            4803               1     23.1901E-03     23.1054E-03    -13.3443E-03    -13.3274E-03
            4804               1     23.3728E-03     23.2499E-03    -13.2572E-03    -13.2749E-03
            4805               1     23.8785E-03     23.5715E-03    -13.2644E-03    -13.2140E-03
            4806               1     24.6973E-03     24.3217E-03    -13.0629E-03    -13.0504E-03
            4807               1     25.2922E-03     24.7746E-03    -12.6438E-03    -12.5604E-03
            4808               1     27.9981E-03     27.3298E-03    -12.1051E-03    -12.0433E-03
            4809               1     27.5897E-03     27.1168E-03    -8.58619E-03    -8.54129E-03
            4810               1     28.2399E-03     27.5452E-03    -5.06900E-03    -4.68936E-03
            4811               1     32.4376E-03     33.1261E-03    -12.1440E-03    -12.4429E-03
            4812               1     31.6585E-03     31.8815E-03    -13.5427E-03    -13.5902E-03
            4813               1     29.8305E-03     30.3255E-03    -13.8802E-03    -13.8667E-03
            4814               1     28.7566E-03     29.2285E-03    -14.0298E-03    -14.1666E-03
            4815               1     27.5322E-03     27.8739E-03    -14.0957E-03    -14.0716E-03
            4816               1     26.4843E-03     26.9154E-03    -13.9923E-03    -14.1037E-03
            4817               1     25.6679E-03     25.9073E-03    -13.9921E-03    -13.9850E-03
            4818               1     24.8947E-03     25.1991E-03    -13.8875E-03    -13.9632E-03
            4819               1     24.4713E-03     24.6084E-03    -13.9023E-03    -13.9039E-03
            4820               1     24.0964E-03     24.2570E-03    -13.8515E-03    -13.9022E-03
            4821               1     24.0533E-03     24.0650E-03    -13.8859E-03    -13.8827E-03
            4822               1     24.1079E-03     24.1121E-03    -13.8658E-03    -13.8971E-03
            4823               1     24.3018E-03     24.1521E-03    -13.8281E-03    -13.8022E-03
            4824               1     24.7721E-03     24.5769E-03    -13.7320E-03    -13.7312E-03
            4825               1     24.7865E-03     24.4431E-03    -13.2799E-03    -13.2163E-03
            4826               1     25.7845E-03     25.2985E-03    -12.8112E-03    -12.7324E-03
            4827               1     24.7576E-03     24.2804E-03    -10.6916E-03    -10.6100E-03
            4828               1     24.8915E-03     24.1027E-03    -8.56296E-03    -8.26638E-03
            4829               1     24.2695E-03     23.6647E-03    -4.61783E-03    -4.51244E-03
            4830               1     31.1728E-03     31.4641E-03    -11.8404E-03    -11.8270E-03
            4831               1     30.5222E-03     31.2038E-03    -12.9941E-03    -13.2257E-03
            4832               1     30.1705E-03     30.4579E-03    -13.9309E-03    -14.0101E-03
            4833               1     28.9643E-03     29.3775E-03    -14.1838E-03    -14.2217E-03
            4834               1     28.1342E-03     28.4785E-03    -14.3399E-03    -14.4379E-03
            4835               1     27.1347E-03     27.3724E-03    -14.3622E-03    -14.3603E-03
            4836               1     26.3069E-03     26.5886E-03    -14.3234E-03    -14.4009E-03
            4837               1     25.6527E-03     25.7928E-03    -14.3149E-03    -14.3150E-03
            4838               1     25.1309E-03     25.3159E-03    -14.2802E-03    -14.3368E-03
            4839               1     24.8563E-03     24.9154E-03    -14.2838E-03    -14.2879E-03
            4840               1     24.7565E-03     24.8365E-03    -14.2896E-03    -14.3312E-03
            4841               1     24.7522E-03     24.7163E-03    -14.2431E-03    -14.2407E-03
            4842               1     25.0336E-03     24.9860E-03    -14.2218E-03    -14.2450E-03
            4843               1     24.9083E-03     24.7346E-03    -13.8755E-03    -13.8462E-03
            4844               1     25.3100E-03     25.0480E-03    -13.5650E-03    -13.5302E-03
            4845               1     24.2531E-03     23.8909E-03    -12.2179E-03    -12.1444E-03
            4846               1     23.8071E-03     23.1931E-03    -10.8432E-03    -10.6397E-03
            4847               1     21.9917E-03     21.4339E-03    -7.93297E-03    -7.81384E-03
            4848               1     20.6914E-03     19.9941E-03    -4.96687E-03    -4.55309E-03
            4849               1     29.4965E-03     30.0910E-03    -11.2664E-03    -11.5964E-03
            4850               1     30.0134E-03     30.2621E-03    -12.9161E-03    -12.9487E-03
            4851               1     29.5419E-03     30.0610E-03    -13.6378E-03    -13.8015E-03
            4852               1     29.2264E-03     29.4430E-03    -14.2590E-03    -14.3137E-03
            4853               1     28.2663E-03     28.5178E-03    -14.4082E-03    -14.4351E-03
            4854               1     27.5448E-03     27.7446E-03    -14.5416E-03    -14.5995E-03
            4855               1     26.7273E-03     26.8487E-03    -14.5505E-03    -14.5501E-03
            4856               1     26.1105E-03     26.2662E-03    -14.5648E-03    -14.6150E-03
            4857               1     25.6186E-03     25.6807E-03    -14.5519E-03    -14.5553E-03
            4858               1     25.3504E-03     25.4514E-03    -14.5695E-03    -14.6120E-03
            4859               1     25.1620E-03     25.1836E-03    -14.5193E-03    -14.5292E-03
            4860               1     25.2788E-03     25.3172E-03    -14.5333E-03    -14.5696E-03
            4861               1     25.1308E-03     25.0991E-03    -14.2941E-03    -14.3022E-03
            4862               1     25.3967E-03     25.3305E-03    -14.1469E-03    -14.1642E-03
            4863               1     24.6350E-03     24.4691E-03    -13.3063E-03    -13.2827E-03
            4864               1     24.1809E-03     23.8576E-03    -12.4829E-03    -12.3964E-03
            4865               1     22.1408E-03     21.7243E-03    -10.4611E-03    -10.3785E-03
            4866               1     20.0943E-03     19.3980E-03    -8.28201E-03    -7.95687E-03
            4867               1     17.8470E-03     17.2187E-03    -4.96377E-03    -4.84394E-03
            4868               1     28.2177E-03     28.5353E-03    -11.2156E-03    -11.2756E-03
            4869               1     28.9271E-03     29.4280E-03    -12.5284E-03    -12.7597E-03
            4870               1     29.3330E-03     29.4816E-03    -13.6245E-03    -13.6399E-03
            4871               1     28.8265E-03     29.0659E-03    -14.0431E-03    -14.1056E-03
            4872               1     28.3891E-03     28.4700E-03    -14.4455E-03    -14.4667E-03
            4873               1     27.5854E-03     27.6666E-03    -14.5507E-03    -14.5526E-03
            4874               1     26.9837E-03     27.0596E-03    -14.6778E-03    -14.7081E-03
            4875               1     26.3459E-03     26.3735E-03    -14.6880E-03    -14.6855E-03
            4876               1     25.9452E-03     26.0155E-03    -14.7376E-03    -14.7710E-03
            4877               1     25.5780E-03     25.5999E-03    -14.6925E-03    -14.7009E-03
            4878               1     25.5103E-03     25.5712E-03    -14.7162E-03    -14.7516E-03
            4879               1     25.2966E-03     25.3308E-03    -14.5442E-03    -14.5676E-03
            4880               1     25.4623E-03     25.5054E-03    -14.4802E-03    -14.5195E-03
            4881               1     24.9986E-03     25.0262E-03    -13.9606E-03    -13.9951E-03
            4882               1     24.8466E-03     24.8176E-03    -13.5468E-03    -13.5782E-03
            4883               1     23.3622E-03     23.1944E-03    -12.2696E-03    -12.2553E-03
            4884               1     21.6093E-03     21.2713E-03    -10.8635E-03    -10.7392E-03
            4885               1     18.5021E-03     17.9982E-03    -8.31950E-03    -8.24716E-03
            4886               1     15.1883E-03     14.4242E-03    -5.45818E-03    -5.01978E-03
            4887               1     26.8252E-03     27.2915E-03    -10.9839E-03    -11.2581E-03
            4888               1     28.2940E-03     28.4216E-03    -12.5475E-03    -12.5341E-03
            4889               1     28.5893E-03     28.7210E-03    -13.2871E-03    -13.3460E-03
            4890               1     28.5845E-03     28.5349E-03    -13.9756E-03    -13.9505E-03
            4891               1     28.0617E-03     28.0614E-03    -14.2687E-03    -14.2688E-03
            4892               1     27.6178E-03     27.5723E-03    -14.5743E-03    -14.5731E-03
            4893               1     26.9841E-03     26.9451E-03    -14.6733E-03    -14.6634E-03
            4894               1     26.5503E-03     26.5443E-03    -14.8042E-03    -14.8202E-03
            4895               1     26.0637E-03     26.0420E-03    -14.7953E-03    -14.7949E-03
            4896               1     25.8388E-03     25.8683E-03    -14.8398E-03    -14.8648E-03
            4897               1     25.5079E-03     25.5355E-03    -14.7099E-03    -14.7282E-03
            4898               1     25.5062E-03     25.5702E-03    -14.6676E-03    -14.7021E-03
            4899               1     25.1409E-03     25.2428E-03    -14.3139E-03    -14.3635E-03
            4900               1     25.1043E-03     25.2054E-03    -14.0805E-03    -14.1372E-03
            4901               1     24.2406E-03     24.3969E-03    -13.2926E-03    -13.3831E-03
            4902               1     23.3901E-03     23.4997E-03    -12.5846E-03    -12.6852E-03
            4903               1     21.0136E-03     20.8167E-03    -10.9469E-03    -10.9563E-03
            4904               1     17.6258E-03     17.2621E-03    -8.89753E-03    -8.70534E-03
            4905               1     13.0770E-03     12.6140E-03    -5.58989E-03    -5.66283E-03
            4906               1     25.9177E-03     26.0430E-03    -11.1563E-03    -11.1398E-03
            4907               1     27.3663E-03     27.2405E-03    -12.2219E-03    -12.1983E-03
            4908               1     27.9206E-03     27.7267E-03    -13.1436E-03    -13.0794E-03
            4909               1     27.9607E-03     27.7946E-03    -13.7018E-03    -13.6737E-03
            4910               1     27.8195E-03     27.6278E-03    -14.2177E-03    -14.1837E-03
            4911               1     27.4104E-03     27.2663E-03    -14.4886E-03    -14.4683E-03
            4912               1     27.0888E-03     26.9737E-03    -14.7593E-03    -14.7545E-03
            4913               1     26.6194E-03     26.5222E-03    -14.8433E-03    -14.8330E-03
            4914               1     26.3387E-03     26.2985E-03    -14.9523E-03    -14.9636E-03
            4915               1     25.9205E-03     25.8938E-03    -14.8764E-03    -14.8812E-03
            4916               1     25.7536E-03     25.7816E-03    -14.8517E-03    -14.8728E-03
            4917               1     25.3349E-03     25.4071E-03    -14.5807E-03    -14.6122E-03
            4918               1     25.1906E-03     25.2965E-03    -14.3885E-03    -14.4270E-03
            4919               1     24.5636E-03     24.7820E-03    -13.8325E-03    -13.9205E-03
            4920               1     24.0758E-03     24.3043E-03    -13.3682E-03    -13.4656E-03
            4921               1     22.7499E-03     23.1419E-03    -12.3729E-03    -12.5688E-03
            4922               1     21.0192E-03     21.4946E-03    -11.3975E-03    -11.6965E-03
            4923               1     17.3573E-03     17.1089E-03    -9.30675E-03    -9.36403E-03
            4924               1     11.5983E-03     10.9880E-03    -6.22263E-03    -5.79500E-03
            4925               1     24.8913E-03     24.3158E-03    -10.8664E-03    -10.6986E-03
            4926               1     26.1586E-03     25.7278E-03    -11.9581E-03    -11.8631E-03
            4927               1     27.0418E-03     26.6224E-03    -12.8569E-03    -12.7845E-03
            4928               1     27.3889E-03     27.0254E-03    -13.6037E-03    -13.5468E-03
            4929               1     27.4516E-03     27.1642E-03    -14.1298E-03    -14.0993E-03
            4930               1     27.4215E-03     27.1793E-03    -14.5943E-03    -14.5729E-03
            4931               1     27.1613E-03     26.9687E-03    -14.8410E-03    -14.8258E-03
            4932               1     26.9830E-03     26.8498E-03    -15.0737E-03    -15.0727E-03
            4933               1     26.5949E-03     26.4925E-03    -15.0933E-03    -15.0886E-03
            4934               1     26.3699E-03     26.3297E-03    -15.1290E-03    -15.1376E-03
            4935               1     25.8886E-03     25.8881E-03    -14.9270E-03    -14.9369E-03
            4936               1     25.5998E-03     25.6504E-03    -14.7590E-03    -14.7755E-03
            4937               1     24.9473E-03     25.0816E-03    -14.3020E-03    -14.3438E-03
            4938               1     24.4172E-03     24.5856E-03    -13.8777E-03    -13.9180E-03
            4939               1     23.3961E-03     23.7548E-03    -13.1164E-03    -13.2439E-03
            4940               1     22.1945E-03     22.6021E-03    -12.3492E-03    -12.4937E-03
            4941               1     20.3381E-03     21.1437E-03    -11.2004E-03    -11.5746E-03
            4942               1     17.4573E-03     18.7437E-03    -9.84946E-03    -10.5796E-03
            4943               1     11.5641E-03     12.2142E-03    -6.62711E-03    -7.02944E-03
            4944               1     22.8610E-03     22.0692E-03    -10.2797E-03    -10.2398E-03
            4945               1     25.0025E-03     24.2735E-03    -11.7048E-03    -11.6279E-03
            4946               1     26.1185E-03     25.5877E-03    -12.7303E-03    -12.6981E-03
            4947               1     26.9317E-03     26.4851E-03    -13.6102E-03    -13.5855E-03
            4948               1     27.4021E-03     27.0458E-03    -14.3166E-03    -14.3007E-03
            4949               1     27.5618E-03     27.2685E-03    -14.7962E-03    -14.7867E-03
            4950               1     27.6608E-03     27.4327E-03    -15.2058E-03    -15.2012E-03
            4951               1     27.4617E-03     27.2806E-03    -15.3730E-03    -15.3687E-03
            4952               1     27.3392E-03     27.2178E-03    -15.5259E-03    -15.5271E-03
            4953               1     26.8993E-03     26.8215E-03    -15.4220E-03    -15.4219E-03
            4954               1     26.5872E-03     26.5644E-03    -15.3272E-03    -15.3312E-03
            4955               1     25.8974E-03     25.9266E-03    -14.9487E-03    -14.9560E-03
            4956               1     25.2903E-03     25.3684E-03    -14.5665E-03    -14.5751E-03
            4957               1     24.2429E-03     24.4006E-03    -13.8889E-03    -13.9161E-03
            4958               1     23.0591E-03     23.2683E-03    -13.1335E-03    -13.1619E-03
            4959               1     21.4706E-03     21.8435E-03    -12.1590E-03    -12.2523E-03
            4960               1     19.1285E-03     19.6210E-03    -10.8733E-03    -11.0044E-03
            4961               1     16.9786E-03     17.8712E-03    -9.73113E-03    -10.1214E-03
            4962               1     13.4178E-03     14.1313E-03    -6.64185E-03    -8.02588E-03
            4963               1     20.5722E-03     21.1408E-03    -11.6237E-03    -11.7992E-03
            4964               1     21.2347E-03     21.4386E-03    -12.1013E-03    -12.0517E-03
            4965               1     20.8016E-03     21.0916E-03    -11.8679E-03    -11.8881E-03
            4966               1     20.8529E-03     21.0777E-03    -11.9393E-03    -11.9338E-03
            4967               1     20.6412E-03     20.8660E-03    -11.8427E-03    -11.8536E-03
            4968               1     20.6418E-03     20.8152E-03    -11.8708E-03    -11.8677E-03
            4969               1     20.5413E-03     20.7027E-03    -11.8320E-03    -11.8395E-03
            4970               1     20.5457E-03     20.6644E-03    -11.8496E-03    -11.8496E-03
            4971               1     20.4933E-03     20.5903E-03    -11.8284E-03    -11.8339E-03
            4972               1     20.5303E-03     20.5889E-03    -11.8532E-03    -11.8543E-03
            4973               1     20.4870E-03     20.5199E-03    -11.8258E-03    -11.8310E-03
            4974               1     20.6047E-03     20.5994E-03    -11.8865E-03    -11.8869E-03
            4975               1     20.5192E-03     20.4900E-03    -11.8221E-03    -11.8295E-03
            4976               1     20.8343E-03     20.7642E-03    -11.9906E-03    -11.9878E-03
            4977               1     20.5587E-03     20.4710E-03    -11.8013E-03    -11.8125E-03
            4978               1     21.1895E-03     21.0798E-03    -12.1609E-03    -12.1619E-03
            4979               1     19.7844E-03     19.5828E-03    -11.2522E-03    -11.2525E-03
            4980               1     20.1660E-03     19.7143E-03    -11.2892E-03    -11.1950E-03
            4981               1     20.7398E-03     19.8201E-03    -7.47606E-03    -7.83252E-03
            4982               1     21.8952E-03     21.8500E-03    -12.4276E-03    -12.2969E-03
            4983               1     21.3937E-03     21.5583E-03    -12.1012E-03    -12.1526E-03
            4984               1     21.2603E-03     21.3468E-03    -12.1040E-03    -12.0966E-03
            4985               1     21.0596E-03     21.1825E-03    -12.0117E-03    -12.0340E-03
            4986               1     21.0249E-03     21.0870E-03    -12.0365E-03    -12.0291E-03
            4987               1     20.9173E-03     21.0155E-03    -12.0015E-03    -12.0214E-03
            4988               1     20.8998E-03     20.9491E-03    -12.0191E-03    -12.0166E-03
            4989               1     20.8355E-03     20.9032E-03    -12.0016E-03    -12.0163E-03
            4990               1     20.8322E-03     20.8667E-03    -12.0145E-03    -12.0162E-03
            4991               1     20.7936E-03     20.8339E-03    -12.0017E-03    -12.0136E-03
            4992               1     20.8190E-03     20.8341E-03    -12.0198E-03    -12.0231E-03
            4993               1     20.7893E-03     20.8048E-03    -12.0001E-03    -12.0114E-03
            4994               1     20.8739E-03     20.8663E-03    -12.0436E-03    -12.0465E-03
            4995               1     20.8429E-03     20.8346E-03    -12.0063E-03    -12.0187E-03
            4996               1     21.1128E-03     21.0924E-03    -12.1590E-03    -12.1654E-03
            4997               1     21.2043E-03     21.1473E-03    -12.1623E-03    -12.1610E-03
            4998               1     21.8199E-03     21.8299E-03    -12.5504E-03    -12.5775E-03
            4999               1     20.5942E-03     20.4090E-03    -11.5518E-03    -11.5549E-03
            5000               1     12.2403E-03     12.0055E-03    -5.83690E-03    -5.49030E-03
            5001               1     22.1913E-03     21.8015E-03    -12.3938E-03    -12.2659E-03
            5002               1     21.4789E-03     21.4675E-03    -12.1367E-03    -12.1586E-03
            5003               1     21.5019E-03     21.4673E-03    -12.1705E-03    -12.1952E-03
            5004               1     21.3450E-03     21.2610E-03    -12.1459E-03    -12.1332E-03
            5005               1     21.3073E-03     21.2897E-03    -12.1581E-03    -12.1805E-03
            5006               1     21.2444E-03     21.1902E-03    -12.1623E-03    -12.1583E-03
            5007               1     21.1998E-03     21.1876E-03    -12.1656E-03    -12.1817E-03
            5008               1     21.1586E-03     21.1279E-03    -12.1679E-03    -12.1685E-03
            5009               1     21.1258E-03     21.1243E-03    -12.1692E-03    -12.1818E-03
            5010               1     21.0940E-03     21.0841E-03    -12.1650E-03    -12.1681E-03
            5011               1     21.0870E-03     21.1000E-03    -12.1709E-03    -12.1819E-03
            5012               1     21.0470E-03     21.0556E-03    -12.1512E-03    -12.1554E-03
            5013               1     21.0909E-03     21.1206E-03    -12.1742E-03    -12.1843E-03
            5014               1     21.0102E-03     21.0360E-03    -12.1237E-03    -12.1283E-03
            5015               1     21.2399E-03     21.2924E-03    -12.2314E-03    -12.2423E-03
            5016               1     21.1481E-03     21.1696E-03    -12.1778E-03    -12.1713E-03
            5017               1     21.8957E-03     22.0107E-03    -12.5088E-03    -12.5416E-03
            5018               1     19.2789E-03     19.4408E-03    -11.0617E-03    -11.1332E-03
            5019               1     10.2575E-03     9.82423E-03    -5.91246E-03    -5.61472E-03
            5020               1     20.6525E-03     20.6868E-03    -11.5403E-03    -11.7120E-03
            5021               1     21.8184E-03     21.4803E-03    -12.2493E-03    -12.2086E-03
            5022               1     21.5427E-03     21.3172E-03    -12.1627E-03    -12.1674E-03
            5023               1     21.7113E-03     21.5148E-03    -12.3083E-03    -12.3136E-03
            5024               1     21.5669E-03     21.3867E-03    -12.2727E-03    -12.2741E-03
            5025               1     21.5850E-03     21.4372E-03    -12.3227E-03    -12.3272E-03
            5026               1     21.4980E-03     21.3704E-03    -12.3080E-03    -12.3097E-03
            5027               1     21.4823E-03     21.3866E-03    -12.3293E-03    -12.3338E-03
            5028               1     21.4138E-03     21.3403E-03    -12.3145E-03    -12.3165E-03
            5029               1     21.4103E-03     21.3682E-03    -12.3328E-03    -12.3368E-03
            5030               1     21.3261E-03     21.3085E-03    -12.2983E-03    -12.3011E-03
            5031               1     21.3768E-03     21.3894E-03    -12.3377E-03    -12.3405E-03
            5032               1     21.2063E-03     21.2475E-03    -12.2430E-03    -12.2478E-03
            5033               1     21.4019E-03     21.4683E-03    -12.3546E-03    -12.3540E-03
            5034               1     20.9247E-03     21.0256E-03    -12.0743E-03    -12.0804E-03
            5035               1     21.3399E-03     21.4812E-03    -12.2927E-03    -12.2954E-03
            5036               1     19.2886E-03     19.4396E-03    -11.1023E-03    -11.1090E-03
            5037               1     18.5681E-03     18.5501E-03    -10.6973E-03    -10.6550E-03
            5038               1     14.9638E-03     14.4917E-03    -6.66459E-03    -7.11920E-03
            5039               1     509.955E-06     641.391E-06    -273.000E-06    -349.892E-06
            5040               1     563.019E-06     623.923E-06    -321.376E-06    -345.042E-06
            5041               1     570.790E-06     600.470E-06    -328.811E-06    -330.457E-06
            5042               1     577.904E-06     620.778E-06    -333.624E-06    -337.284E-06
            5043               1     577.410E-06     623.602E-06    -333.056E-06    -334.177E-06
            5044               1     583.029E-06     638.953E-06    -335.095E-06    -336.963E-06
            5045               1     586.151E-06     648.848E-06    -334.767E-06    -336.719E-06
            5046               1     593.648E-06     662.937E-06    -336.117E-06    -338.099E-06
            5047               1     601.436E-06     675.844E-06    -336.689E-06    -338.797E-06
            5048               1     612.204E-06     691.046E-06    -338.392E-06    -340.191E-06
            5049               1     623.441E-06     706.100E-06    -339.405E-06    -341.724E-06
            5050               1     637.423E-06     722.536E-06    -341.856E-06    -343.356E-06
            5051               1     650.611E-06     738.421E-06    -342.612E-06    -345.355E-06
            5052               1     666.048E-06     754.866E-06    -345.168E-06    -346.245E-06
            5053               1     677.856E-06     768.885E-06    -342.677E-06    -346.392E-06
            5054               1     692.190E-06     784.161E-06    -342.693E-06    -342.971E-06
            5055               1     699.535E-06     795.236E-06    -326.794E-06    -332.929E-06
            5056               1     726.712E-06     825.405E-06    -323.872E-06    -318.814E-06
            5057               1     767.881E-06     877.938E-06    -272.377E-06    -281.716E-06
            5058               1     627.347E-06     632.274E-06    -360.462E-06    -364.304E-06
            5059               1     577.755E-06     626.540E-06    -332.117E-06    -355.475E-06
            5060               1     589.599E-06     631.712E-06    -340.381E-06    -354.000E-06
            5061               1     595.114E-06     623.361E-06    -343.158E-06    -345.992E-06
            5062               1     598.492E-06     638.010E-06    -343.867E-06    -349.119E-06
            5063               1     601.700E-06     644.539E-06    -343.668E-06    -348.392E-06
            5064               1     607.624E-06     656.658E-06    -344.061E-06    -349.481E-06
            5065               1     614.810E-06     667.507E-06    -344.482E-06    -349.801E-06
            5066               1     624.467E-06     680.641E-06    -345.540E-06    -350.650E-06
            5067               1     634.652E-06     694.692E-06    -346.108E-06    -351.932E-06
            5068               1     648.537E-06     709.141E-06    -348.461E-06    -352.857E-06
            5069               1     660.923E-06     726.335E-06    -348.988E-06    -355.641E-06
            5070               1     678.794E-06     741.564E-06    -353.133E-06    -356.619E-06
            5071               1     692.675E-06     761.712E-06    -353.315E-06    -361.346E-06
            5072               1     712.369E-06     776.081E-06    -358.821E-06    -361.349E-06
            5073               1     727.820E-06     799.512E-06    -356.398E-06    -366.716E-06
            5074               1     743.715E-06     810.461E-06    -358.925E-06    -359.962E-06
            5075               1     773.171E-06     844.838E-06    -343.014E-06    -355.320E-06
            5076               1     795.843E-06     864.596E-06    -331.519E-06    -320.690E-06
            5077               1     667.507E-06     538.448E-06    -385.206E-06    -309.698E-06
            5078               1     651.260E-06     618.069E-06    -375.520E-06    -355.593E-06
            5079               1     615.662E-06     628.944E-06    -354.478E-06    -357.973E-06
            5080               1     619.825E-06     640.333E-06    -356.060E-06    -360.209E-06
            5081               1     618.950E-06     646.252E-06    -353.437E-06    -360.501E-06
            5082               1     622.754E-06     654.235E-06    -352.642E-06    -360.390E-06
            5083               1     630.116E-06     662.493E-06    -353.307E-06    -360.304E-06
            5084               1     637.590E-06     672.813E-06    -353.132E-06    -360.525E-06
            5085               1     647.320E-06     684.581E-06    -353.631E-06    -361.185E-06
            5086               1     659.363E-06     696.767E-06    -354.893E-06    -361.475E-06
            5087               1     671.032E-06     712.493E-06    -355.100E-06    -363.563E-06
            5088               1     688.071E-06     726.256E-06    -358.472E-06    -363.975E-06
            5089               1     702.368E-06     747.224E-06    -359.045E-06    -368.813E-06
            5090               1     724.282E-06     762.321E-06    -365.309E-06    -369.557E-06
            5091               1     743.588E-06     790.872E-06    -367.580E-06    -379.006E-06
            5092               1     764.916E-06     804.023E-06    -374.286E-06    -377.638E-06
            5093               1     794.628E-06     841.376E-06    -377.239E-06    -389.482E-06
            5094               1     782.822E-06     834.545E-06    -359.296E-06    -367.239E-06
            5095               1     846.883E-06     870.362E-06    -338.719E-06    -345.095E-06
            5096               1     656.967E-06     641.046E-06    -379.283E-06    -369.844E-06
            5097               1     660.232E-06     592.515E-06    -380.535E-06    -340.954E-06
            5098               1     661.800E-06     637.474E-06    -380.252E-06    -365.160E-06
            5099               1     636.729E-06     654.517E-06    -363.457E-06    -372.978E-06
            5100               1     641.105E-06     656.566E-06    -363.065E-06    -371.148E-06
            5101               1     647.529E-06     662.655E-06    -363.211E-06    -370.936E-06
            5102               1     652.805E-06     669.355E-06    -361.902E-06    -370.425E-06
            5103               1     662.549E-06     678.137E-06    -362.598E-06    -370.375E-06
            5104               1     672.032E-06     687.536E-06    -362.474E-06    -370.123E-06
            5105               1     682.894E-06     700.109E-06    -362.419E-06    -371.048E-06
            5106               1     697.028E-06     711.245E-06    -363.957E-06    -370.595E-06
            5107               1     709.830E-06     728.858E-06    -363.673E-06    -373.436E-06
            5108               1     729.184E-06     741.927E-06    -367.587E-06    -372.990E-06
            5109               1     746.483E-06     767.083E-06    -368.677E-06    -379.639E-06
            5110               1     769.604E-06     781.742E-06    -374.602E-06    -378.862E-06
            5111               1     795.472E-06     815.784E-06    -379.489E-06    -390.574E-06
            5112               1     803.182E-06     821.223E-06    -374.546E-06    -381.111E-06
            5113               1     829.916E-06     844.131E-06    -376.591E-06    -383.342E-06
            5114               1     720.165E-06     778.800E-06    -273.757E-06    -314.379E-06
            5115               1     702.406E-06     570.258E-06    -404.846E-06    -329.189E-06
            5116               1     687.230E-06     657.878E-06    -396.085E-06    -378.115E-06
            5117               1     652.707E-06     663.367E-06    -372.745E-06    -381.977E-06
            5118               1     662.197E-06     664.641E-06    -374.952E-06    -381.820E-06
            5119               1     665.872E-06     667.342E-06    -373.509E-06    -380.915E-06
            5120               1     670.740E-06     671.129E-06    -372.152E-06    -380.375E-06
            5121               1     680.254E-06     676.543E-06    -372.846E-06    -379.612E-06
            5122               1     687.725E-06     683.207E-06    -371.799E-06    -379.173E-06
            5123               1     697.954E-06     692.127E-06    -371.670E-06    -379.103E-06
            5124               1     709.029E-06     700.326E-06    -371.563E-06    -378.105E-06
            5125               1     720.012E-06     713.179E-06    -370.551E-06    -378.950E-06
            5126               1     734.858E-06     722.442E-06    -371.582E-06    -377.078E-06
            5127               1     747.752E-06     740.561E-06    -370.168E-06    -379.598E-06
            5128               1     766.261E-06     750.957E-06    -372.202E-06    -376.510E-06
            5129               1     783.114E-06     775.022E-06    -371.569E-06    -381.397E-06
            5130               1     799.231E-06     783.481E-06    -370.131E-06    -374.008E-06
            5131               1     813.112E-06     802.028E-06    -368.950E-06    -376.511E-06
            5132               1     787.415E-06     780.601E-06    -335.315E-06    -345.846E-06
            5133               1     705.620E-06     710.005E-06    -303.578E-06    -306.058E-06
            5134               1     698.722E-06     722.439E-06    -401.431E-06    -413.628E-06
            5135               1     646.181E-06     701.607E-06    -366.643E-06    -404.684E-06
            5136               1     669.380E-06     689.599E-06    -378.428E-06    -398.127E-06
            5137               1     683.598E-06     673.278E-06    -383.318E-06    -388.134E-06
            5138               1     690.923E-06     678.840E-06    -383.470E-06    -390.265E-06
            5139               1     699.592E-06     679.496E-06    -383.834E-06    -388.280E-06
            5140               1     706.841E-06     684.560E-06    -382.952E-06    -388.482E-06
            5141               1     716.290E-06     689.818E-06    -382.666E-06    -387.715E-06
            5142               1     725.492E-06     695.657E-06    -381.768E-06    -386.802E-06
            5143               1     735.340E-06     704.047E-06    -380.646E-06    -386.379E-06
            5144               1     746.422E-06     710.217E-06    -379.731E-06    -384.105E-06
            5145               1     756.295E-06     721.583E-06    -377.321E-06    -383.810E-06
            5146               1     768.512E-06     726.908E-06    -375.740E-06    -379.262E-06
            5147               1     777.667E-06     740.093E-06    -371.225E-06    -378.232E-06
            5148               1     787.672E-06     742.075E-06    -366.257E-06    -369.091E-06
            5149               1     790.345E-06     748.617E-06    -356.926E-06    -363.219E-06
            5150               1     784.975E-06     736.922E-06    -339.442E-06    -342.259E-06
            5151               1     739.111E-06     695.688E-06    -312.737E-06    -315.700E-06
            5152               1     673.951E-06     616.536E-06    -266.298E-06    -261.560E-06
            5153               1     604.197E-06     755.548E-06    -319.331E-06    -420.285E-06
            5154               1     680.017E-06     717.629E-06    -380.172E-06    -410.492E-06
            5155               1     697.204E-06     682.483E-06    -389.620E-06    -393.500E-06
            5156               1     711.386E-06     692.281E-06    -394.508E-06    -399.662E-06
            5157               1     718.504E-06     686.037E-06    -394.417E-06    -395.591E-06
            5158               1     728.578E-06     691.186E-06    -395.301E-06    -397.409E-06
            5159               1     736.404E-06     692.734E-06    -394.398E-06    -396.158E-06
            5160               1     745.720E-06     696.835E-06    -393.833E-06    -395.785E-06
            5161               1     754.762E-06     701.617E-06    -392.811E-06    -394.834E-06
            5162               1     764.137E-06     705.998E-06    -391.299E-06    -393.083E-06
            5163               1     773.142E-06     712.695E-06    -389.388E-06    -391.659E-06
            5164               1     781.682E-06     716.012E-06    -386.266E-06    -387.798E-06
            5165               1     788.328E-06     722.408E-06    -382.011E-06    -384.516E-06
            5166               1     792.320E-06     720.231E-06    -374.752E-06    -375.963E-06
            5167               1     789.346E-06     718.702E-06    -363.988E-06    -366.560E-06
            5168               1     777.852E-06     699.916E-06    -346.408E-06    -347.294E-06
            5169               1     740.023E-06     664.214E-06    -317.332E-06    -319.774E-06
            5170               1     689.495E-06     600.744E-06    -282.720E-06    -280.043E-06
            5171               1     543.480E-06     459.137E-06    -211.568E-06    -213.709E-06
            5172               1     131.536E-03     130.924E-03     72.3651E-03     73.1192E-03
            5173               1     140.561E-03     138.135E-03     77.5654E-03     77.3181E-03
            5174               1     142.231E-03     141.140E-03     78.9416E-03     79.4471E-03
            5175               1     145.294E-03     143.681E-03     81.1869E-03     81.3709E-03
            5176               1     145.123E-03     143.788E-03     81.5782E-03     81.8742E-03
            5177               1     145.889E-03     144.675E-03     82.4616E-03     82.7466E-03
            5178               1     145.278E-03     144.192E-03     82.4988E-03     82.7705E-03
            5179               1     145.401E-03     144.566E-03     82.9176E-03     83.2119E-03
            5180               1     144.603E-03     143.965E-03     82.7440E-03     83.0194E-03
            5181               1     144.628E-03     144.307E-03     83.0117E-03     83.3007E-03
            5182               1     143.484E-03     143.448E-03     82.5382E-03     82.8156E-03
            5183               1     143.559E-03     143.927E-03     82.7373E-03     83.0269E-03
            5184               1     141.423E-03     142.108E-03     81.5910E-03     81.8500E-03
            5185               1     141.176E-03     142.441E-03     81.4977E-03     81.8268E-03
            5186               1     136.231E-03     137.565E-03     78.6384E-03     78.8026E-03
            5187               1     133.822E-03     135.845E-03     77.2207E-03     77.6294E-03
            5188               1     122.383E-03     124.244E-03     70.5858E-03     71.0757E-03
            5189               1     117.278E-03     119.480E-03     67.1697E-03     68.7652E-03
            5190               1     103.925E-03     101.791E-03     47.5946E-03     56.3085E-03
            5191               1     139.903E-03     137.620E-03     76.4470E-03     75.7585E-03
            5192               1     141.119E-03     142.533E-03     77.7142E-03     79.1157E-03
            5193               1     144.696E-03     144.031E-03     80.2358E-03     80.6137E-03
            5194               1     143.505E-03     143.756E-03     80.2795E-03     81.0626E-03
            5195               1     143.965E-03     144.126E-03     81.0242E-03     81.7710E-03
            5196               1     143.152E-03     143.296E-03     81.0622E-03     81.7344E-03
            5197               1     142.991E-03     143.428E-03     81.3591E-03     82.1493E-03
            5198               1     142.341E-03     142.727E-03     81.3281E-03     82.0174E-03
            5199               1     142.160E-03     142.842E-03     81.5134E-03     82.2847E-03
            5200               1     141.499E-03     142.229E-03     81.3471E-03     82.0539E-03
            5201               1     141.502E-03     142.536E-03     81.5318E-03     82.2905E-03
            5202               1     140.659E-03     141.783E-03     81.1440E-03     81.8399E-03
            5203               1     140.963E-03     142.554E-03     81.3745E-03     82.1707E-03
            5204               1     139.491E-03     140.957E-03     80.5040E-03     81.1012E-03
            5205               1     139.744E-03     142.248E-03     80.5238E-03     81.5008E-03
            5206               1     135.270E-03     137.036E-03     77.8199E-03     78.2867E-03
            5207               1     131.166E-03     134.257E-03     75.2889E-03     76.4918E-03
            5208               1     117.231E-03     122.947E-03     67.3140E-03     70.8353E-03
            5209               1     84.8693E-03     85.4405E-03     48.7170E-03     47.7141E-03
            5210               1     141.090E-03     145.294E-03     77.2536E-03     79.5432E-03
            5211               1     146.226E-03     146.614E-03     80.5402E-03     81.1472E-03
            5212               1     144.094E-03     145.740E-03     80.3243E-03     81.3336E-03
            5213               1     143.679E-03     144.933E-03     80.4923E-03     81.4593E-03
            5214               1     142.178E-03     143.428E-03     80.2677E-03     81.1445E-03
            5215               1     141.354E-03     142.854E-03     80.1982E-03     81.2424E-03
            5216               1     140.588E-03     141.862E-03     80.1717E-03     81.0583E-03
            5217               1     140.014E-03     141.555E-03     80.1607E-03     81.1850E-03
            5218               1     139.573E-03     140.964E-03     80.1633E-03     81.0766E-03
            5219               1     139.300E-03     140.898E-03     80.2143E-03     81.2166E-03
            5220               1     139.093E-03     140.609E-03     80.2173E-03     81.1427E-03
            5221               1     139.281E-03     140.996E-03     80.4024E-03     81.4001E-03
            5222               1     139.401E-03     141.017E-03     80.4725E-03     81.3806E-03
            5223               1     140.339E-03     142.319E-03     80.9183E-03     81.9702E-03
            5224               1     140.239E-03     141.983E-03     80.7614E-03     81.6651E-03
            5225               1     140.782E-03     143.238E-03     80.7293E-03     81.9443E-03
            5226               1     133.885E-03     135.755E-03     76.6620E-03     77.5516E-03
            5227               1     117.612E-03     112.576E-03     67.1302E-03     64.6039E-03
            5228               1     81.5068E-03     74.4121E-03     46.7196E-03     42.1391E-03
            5229               1     145.505E-03     148.492E-03     79.3794E-03     81.1885E-03
            5230               1     145.322E-03     147.351E-03     80.8529E-03     81.4502E-03
            5231               1     143.820E-03     146.346E-03     80.2699E-03     81.5328E-03
            5232               1     142.259E-03     144.223E-03     80.1315E-03     80.8974E-03
            5233               1     140.476E-03     142.857E-03     79.4682E-03     80.5781E-03
            5234               1     139.521E-03     141.496E-03     79.3968E-03     80.2596E-03
            5235               1     138.381E-03     140.603E-03     79.0759E-03     80.1202E-03
            5236               1     137.945E-03     139.866E-03     79.1293E-03     80.0281E-03
            5237               1     137.282E-03     139.335E-03     78.9804E-03     79.9960E-03
            5238               1     137.275E-03     139.089E-03     79.1314E-03     80.0502E-03
            5239               1     137.035E-03     138.896E-03     79.0937E-03     80.0956E-03
            5240               1     137.592E-03     139.256E-03     79.4375E-03     80.3727E-03
            5241               1     137.950E-03     139.560E-03     79.5916E-03     80.5685E-03
            5242               1     139.231E-03     140.780E-03     80.2572E-03     81.2483E-03
            5243               1     140.161E-03     141.443E-03     80.5388E-03     81.4664E-03
            5244               1     140.361E-03     141.904E-03     80.5342E-03     81.6690E-03
            5245               1     138.342E-03     138.225E-03     78.4604E-03     78.9449E-03
            5246               1     118.913E-03     115.483E-03     66.3911E-03     63.8711E-03
            5247               1     90.6142E-03     81.0033E-03     46.6268E-03     42.4115E-03
            5248               1     144.627E-03     145.193E-03     79.7372E-03     78.9256E-03
            5249               1     141.951E-03     145.950E-03     78.7899E-03     80.4503E-03
            5250               1     142.040E-03     144.140E-03     79.8232E-03     80.1254E-03
            5251               1     139.462E-03     142.551E-03     78.6771E-03     79.7141E-03
            5252               1     138.800E-03     141.195E-03     78.8226E-03     79.4300E-03
            5253               1     137.106E-03     139.768E-03     78.1870E-03     79.0192E-03
            5254               1     136.630E-03     138.919E-03     78.2592E-03     78.9334E-03
            5255               1     135.573E-03     137.904E-03     77.9056E-03     78.6918E-03
            5256               1     135.541E-03     137.543E-03     78.0796E-03     78.7735E-03
            5257               1     134.928E-03     136.856E-03     77.8515E-03     78.6254E-03
            5258               1     135.476E-03     137.079E-03     78.2148E-03     78.9231E-03
            5259               1     135.175E-03     136.585E-03     78.0176E-03     78.7763E-03
            5260               1     136.435E-03     137.622E-03     78.6737E-03     79.4324E-03
            5261               1     136.247E-03     136.880E-03     78.3780E-03     79.0248E-03
            5262               1     137.945E-03     138.774E-03     79.2022E-03     80.0950E-03
            5263               1     136.772E-03     135.975E-03     77.9470E-03     78.2798E-03
            5264               1     135.736E-03     135.236E-03     76.8235E-03     77.5448E-03
            5265               1     133.941E-03     133.981E-03     71.1389E-03     73.7673E-03
            5266               1     103.429E-03     106.441E-03     47.2879E-03     45.6864E-03
            5267               1     137.900E-03     141.970E-03     75.2040E-03     76.2790E-03
            5268               1     140.032E-03     142.044E-03     78.1234E-03     77.8156E-03
            5269               1     137.365E-03     140.664E-03     77.1647E-03     77.8133E-03
            5270               1     137.692E-03     140.216E-03     77.9796E-03     78.1275E-03
            5271               1     135.726E-03     138.496E-03     77.2272E-03     77.6000E-03
            5272               1     135.359E-03     137.798E-03     77.3975E-03     77.6406E-03
            5273               1     133.991E-03     136.356E-03     76.8894E-03     77.2017E-03
            5274               1     133.838E-03     135.891E-03     77.0306E-03     77.2939E-03
            5275               1     132.987E-03     134.820E-03     76.6913E-03     76.9923E-03
            5276               1     133.376E-03     134.832E-03     76.9936E-03     77.2623E-03
            5277               1     132.823E-03     133.954E-03     76.6771E-03     76.9769E-03
            5278               1     133.891E-03     134.593E-03     77.2268E-03     77.5036E-03
            5279               1     133.142E-03     133.381E-03     76.6407E-03     76.9265E-03
            5280               1     134.719E-03     134.554E-03     77.3536E-03     77.6650E-03
            5281               1     132.522E-03     131.411E-03     75.6926E-03     75.8621E-03
            5282               1     133.920E-03     132.246E-03     75.9806E-03     76.2609E-03
            5283               1     128.506E-03     125.112E-03     71.1214E-03     71.5202E-03
            5284               1     134.942E-03     129.698E-03     71.7682E-03     72.6526E-03
            5285               1     150.354E-03     136.852E-03     53.2361E-03     60.4456E-03
            5286               1     96.9654E-03     97.7569E-03     35.3116E-03     35.2968E-03
            5287               1     91.6282E-03     92.3866E-03     35.3116E-03     35.2968E-03
            5288               1     86.5310E-03     87.2503E-03     35.3116E-03     35.2968E-03
            5289               1     81.7187E-03     82.3916E-03     35.3116E-03     35.2968E-03
            5290               1     77.2445E-03     77.8626E-03     35.3116E-03     35.2968E-03
            5291               1     73.1705E-03     73.7240E-03     35.3116E-03     35.2968E-03
            5292               1     69.5670E-03     70.0451E-03     35.3116E-03     35.2968E-03
            5293               1     66.5106E-03     66.9018E-03     35.3116E-03     35.2968E-03
            5294               1     64.0796E-03     64.3725E-03     35.3116E-03     35.2968E-03
            5295               1     62.3472E-03     62.5319E-03     35.3116E-03     35.2968E-03
            5296               1     61.3726E-03     61.4418E-03     35.3116E-03     35.2968E-03
            5297               1     61.1920E-03     61.1424E-03     35.3116E-03     35.2968E-03
            5298               1     61.8124E-03     61.6453E-03     35.3116E-03     35.2968E-03
            5299               1     63.2101E-03     62.9311E-03     35.3116E-03     35.2968E-03
            5300               1     65.3354E-03     64.9534E-03     35.3116E-03     35.2968E-03
            5301               1     68.1201E-03     67.6463E-03     35.3116E-03     35.2968E-03
            5302               1     71.4872E-03     70.9333E-03     35.3116E-03     35.2968E-03
            5303               1     75.3587E-03     74.7361E-03     35.3116E-03     35.2968E-03
            5304               1     79.6611E-03     78.9803E-03     35.3116E-03     35.2968E-03
            5305               1     99.0378E-03     100.469E-03     56.9381E-03     57.9931E-03
            5306               1     126.087E-03     121.421E-03     69.7989E-03     68.1981E-03
            5307               1     99.8434E-03     104.009E-03     56.0522E-03     57.8343E-03
            5308               1     127.626E-03     130.059E-03     70.5928E-03     72.0444E-03
            5309               1     106.261E-03     106.298E-03     55.2136E-03     56.2355E-03
            5310               1     128.599E-03     132.435E-03     69.7299E-03     71.6711E-03
            5311               1     116.265E-03     120.302E-03     57.6271E-03     58.2182E-03
            5312               1     134.945E-03     139.324E-03     70.8339E-03     73.7442E-03
            5313               1     136.094E-03     133.983E-03     62.1566E-03     63.8038E-03
            5314               1     147.324E-03     149.140E-03     77.0954E-03     77.9360E-03
            5315               1     149.252E-03     156.356E-03     67.4795E-03     66.7639E-03
            5316               1     145.196E-03     145.638E-03     77.8320E-03     75.4221E-03
            5317               1     108.396E-03     109.240E-03     35.3116E-03     35.2968E-03
            5318               1     102.563E-03     103.383E-03     35.3116E-03     35.2968E-03
            5319               1     912.440E-06     1.04735E-03    -299.046E-06    -263.679E-06
            5320               1     1.43259E-03     1.67045E-03    -147.210E-06    -114.078E-06
            5321               1     1.01520E-03     1.04498E-03    -293.138E-06    -282.263E-06
            5322               1     1.25179E-03     1.14685E-03    -7.36958E-06    -33.7175E-06
            5323               1     812.097E-06     842.881E-06    -163.254E-06    -208.387E-06
            5324               1     865.551E-06     938.674E-06     67.2096E-06     52.8121E-06
            5325               1     624.575E-06     652.214E-06    -148.075E-06    -161.758E-06
            5326               1     632.680E-06     615.038E-06     109.486E-06     88.9136E-06
            5327               1     435.798E-06     486.435E-06    -121.211E-06    -165.009E-06
            5328               1     370.590E-06     334.984E-06     116.626E-06     95.2713E-06
            5329               1     421.049E-06     398.324E-06    -201.968E-06    -191.817E-06
            5330               1     178.435E-06     155.774E-06     94.5184E-06     62.0908E-06
            5331               1     417.259E-06     303.421E-06    -178.282E-06    -152.636E-06
            5332               1     294.960E-06     503.646E-06     3.92666E-06     17.6286E-06
            5333               1     52.1038E-03     52.4362E-03    -15.4974E-03    -15.5122E-03
            5334               1     54.3982E-03     71.4442E-03    -20.7574E-03    -19.1507E-03
            5335               1     67.7275E-03     50.9250E-03    -21.9972E-03    -20.5981E-03
            5336               1     45.6500E-03     51.6765E-03    -20.8660E-03    -20.9360E-03
            5337               1     42.1485E-03     39.5474E-03    -21.3952E-03    -20.8124E-03
            5338               1     37.7397E-03     37.1558E-03    -21.7404E-03    -20.6154E-03
            5339               1     36.8087E-03     38.2633E-03    -21.1870E-03    -20.7703E-03
            5340               1     62.6222E-03     63.2536E-03    -5.85788E-03    -5.87270E-03
            5341               1     54.5586E-03     81.0324E-03    -5.57830E-03    -4.44274E-03
            5342               1     72.5757E-03     48.5002E-03    -6.67464E-03    -6.24959E-03
            5343               1     42.1277E-03     53.2413E-03    -6.01833E-03    -5.91731E-03
            5344               1     30.0989E-03     25.9288E-03    -6.44819E-03    -5.11430E-03
            5345               1     14.8704E-03     20.5400E-03    -6.32629E-03    -5.57573E-03
            5346               1     12.5065E-03     14.3204E-03    -5.81323E-03    -5.43780E-03
            5347               1     76.4472E-03     77.2967E-03     4.11510E-03     4.10028E-03
            5348               1     64.9004E-03     95.6784E-03     10.0094E-03     11.6494E-03
            5349               1     88.8332E-03     60.8224E-03     9.46450E-03     11.2215E-03
            5350               1     53.3346E-03     63.7147E-03     11.4621E-03     11.1769E-03
            5351               1     42.2632E-03     38.9887E-03     11.6235E-03     11.3711E-03
            5352               1     25.4623E-03     31.9878E-03     11.4793E-03     11.9867E-03
            5353               1     23.2470E-03     20.5462E-03     11.0489E-03     11.2586E-03
            5354               1     89.8497E-03     90.8245E-03     13.7419E-03     13.7271E-03
            5355               1     87.7612E-03     121.968E-03     29.5849E-03     32.8966E-03
            5356               1     107.992E-03     80.0210E-03     28.9238E-03     30.6911E-03
            5357               1     75.4833E-03     84.4704E-03     29.7477E-03     28.7839E-03
            5358               1     65.0701E-03     63.5351E-03     29.3540E-03     29.2517E-03
            5359               1     57.7563E-03     58.5864E-03     30.1724E-03     28.9044E-03
            5360               1     55.8252E-03     52.2372E-03     30.7478E-03     29.9021E-03
            5361               1     100.427E-03     101.442E-03     22.3665E-03     22.3517E-03
            5362               1     120.969E-03     146.231E-03     54.0933E-03     52.8667E-03
            5363               1     139.496E-03     113.842E-03     51.4967E-03     50.5979E-03
            5364               1     102.127E-03     118.448E-03     49.5901E-03     52.2104E-03
            5365               1     93.4921E-03     94.5129E-03     47.6080E-03     49.9499E-03
            5366               1     85.1831E-03     86.2672E-03     47.5868E-03     46.9122E-03
            5367               1     81.1544E-03     79.4040E-03     45.6824E-03     45.5922E-03
            5368               1     106.686E-03     107.666E-03     29.4012E-03     29.3864E-03
            5369               1     172.481E-03     184.287E-03     80.6737E-03     76.6427E-03
            5370               1     176.085E-03     158.033E-03     81.7761E-03     79.6559E-03
            5371               1     135.681E-03     148.197E-03     70.7770E-03     74.4505E-03
            5372               1     133.233E-03     129.996E-03     71.7976E-03     71.6292E-03
            5373               1     121.044E-03     125.079E-03     69.2251E-03     70.9100E-03
            5374               1     106.375E-03     109.661E-03     61.3671E-03     63.1038E-03
            5431               1     767.881E-06     877.938E-06    -272.377E-06    -281.716E-06
            5432               1     726.712E-06     825.405E-06    -323.872E-06    -318.814E-06
            5433               1     699.535E-06     795.236E-06    -326.794E-06    -332.929E-06
            5434               1     692.190E-06     784.161E-06    -342.693E-06    -342.971E-06
            5435               1     677.856E-06     768.885E-06    -342.677E-06    -346.392E-06
            5436               1     666.048E-06     754.866E-06    -345.168E-06    -346.245E-06
            5437               1     650.611E-06     738.421E-06    -342.612E-06    -345.355E-06
            5438               1     637.423E-06     722.536E-06    -341.856E-06    -343.356E-06
            5439               1     623.441E-06     706.100E-06    -339.405E-06    -341.724E-06
            5440               1     612.204E-06     691.046E-06    -338.392E-06    -340.191E-06
            5441               1     601.436E-06     675.844E-06    -336.689E-06    -338.797E-06
            5442               1     593.648E-06     662.937E-06    -336.117E-06    -338.099E-06
            5443               1     586.151E-06     648.848E-06    -334.767E-06    -336.719E-06
            5444               1     583.029E-06     638.953E-06    -335.095E-06    -336.963E-06
            5445               1     577.410E-06     623.602E-06    -333.056E-06    -334.177E-06
            5446               1     577.904E-06     620.778E-06    -333.624E-06    -337.284E-06
            5447               1     570.790E-06     600.470E-06    -328.811E-06    -330.457E-06
            5448               1     563.019E-06     623.923E-06    -321.376E-06    -345.042E-06
            5449               1     509.955E-06     641.391E-06    -273.000E-06    -349.892E-06
            5450               1     795.843E-06     864.596E-06    -331.519E-06    -320.690E-06
            5451               1     773.171E-06     844.838E-06    -343.014E-06    -355.320E-06
            5452               1     743.715E-06     810.461E-06    -358.925E-06    -359.962E-06
            5453               1     727.820E-06     799.512E-06    -356.398E-06    -366.716E-06
            5454               1     712.369E-06     776.081E-06    -358.821E-06    -361.349E-06
            5455               1     692.675E-06     761.712E-06    -353.315E-06    -361.346E-06
            5456               1     678.794E-06     741.564E-06    -353.133E-06    -356.619E-06
            5457               1     660.923E-06     726.335E-06    -348.988E-06    -355.641E-06
            5458               1     648.537E-06     709.141E-06    -348.461E-06    -352.857E-06
            5459               1     634.652E-06     694.692E-06    -346.108E-06    -351.932E-06
            5460               1     624.467E-06     680.641E-06    -345.540E-06    -350.650E-06
            5461               1     614.810E-06     667.507E-06    -344.482E-06    -349.801E-06
            5462               1     607.624E-06     656.658E-06    -344.061E-06    -349.481E-06
            5463               1     601.700E-06     644.539E-06    -343.668E-06    -348.392E-06
            5464               1     598.492E-06     638.010E-06    -343.867E-06    -349.119E-06
            5465               1     595.114E-06     623.361E-06    -343.158E-06    -345.992E-06
            5466               1     589.599E-06     631.712E-06    -340.381E-06    -354.000E-06
            5467               1     577.755E-06     626.540E-06    -332.117E-06    -355.475E-06
            5468               1     627.347E-06     632.274E-06    -360.462E-06    -364.304E-06
            5469               1     846.883E-06     870.362E-06    -338.719E-06    -345.095E-06
            5470               1     782.822E-06     834.545E-06    -359.296E-06    -367.239E-06
            5471               1     794.628E-06     841.376E-06    -377.239E-06    -389.482E-06
            5472               1     764.916E-06     804.023E-06    -374.286E-06    -377.638E-06
            5473               1     743.588E-06     790.872E-06    -367.580E-06    -379.006E-06
            5474               1     724.282E-06     762.321E-06    -365.309E-06    -369.557E-06
            5475               1     702.368E-06     747.224E-06    -359.045E-06    -368.813E-06
            5476               1     688.071E-06     726.256E-06    -358.472E-06    -363.975E-06
            5477               1     671.032E-06     712.493E-06    -355.100E-06    -363.563E-06
            5478               1     659.363E-06     696.767E-06    -354.893E-06    -361.475E-06
            5479               1     647.320E-06     684.581E-06    -353.631E-06    -361.185E-06
            5480               1     637.590E-06     672.813E-06    -353.132E-06    -360.525E-06
            5481               1     630.116E-06     662.493E-06    -353.307E-06    -360.304E-06
            5482               1     622.754E-06     654.235E-06    -352.642E-06    -360.390E-06
            5483               1     618.950E-06     646.252E-06    -353.437E-06    -360.501E-06
            5484               1     619.825E-06     640.333E-06    -356.060E-06    -360.209E-06
            5485               1     615.662E-06     628.944E-06    -354.478E-06    -357.973E-06
            5486               1     651.260E-06     618.069E-06    -375.520E-06    -355.593E-06
            5487               1     667.507E-06     538.448E-06    -385.206E-06    -309.698E-06
            5488               1     720.165E-06     778.800E-06    -273.757E-06    -314.379E-06
            5489               1     829.916E-06     844.131E-06    -376.591E-06    -383.342E-06
            5490               1     803.182E-06     821.223E-06    -374.546E-06    -381.111E-06
            5491               1     795.472E-06     815.784E-06    -379.489E-06    -390.574E-06
            5492               1     769.604E-06     781.742E-06    -374.602E-06    -378.862E-06
            5493               1     746.483E-06     767.083E-06    -368.677E-06    -379.639E-06
            5494               1     729.184E-06     741.927E-06    -367.587E-06    -372.990E-06
            5495               1     709.830E-06     728.858E-06    -363.673E-06    -373.436E-06
            5496               1     697.028E-06     711.245E-06    -363.957E-06    -370.595E-06
            5497               1     682.894E-06     700.109E-06    -362.419E-06    -371.048E-06
            5498               1     672.032E-06     687.536E-06    -362.474E-06    -370.123E-06
            5499               1     662.549E-06     678.137E-06    -362.598E-06    -370.375E-06
            5500               1     652.805E-06     669.355E-06    -361.902E-06    -370.425E-06
            5501               1     647.529E-06     662.655E-06    -363.211E-06    -370.936E-06
            5502               1     641.105E-06     656.566E-06    -363.065E-06    -371.148E-06
            5503               1     636.729E-06     654.517E-06    -363.457E-06    -372.978E-06
            5504               1     661.800E-06     637.474E-06    -380.252E-06    -365.160E-06
            5505               1     660.232E-06     592.515E-06    -380.535E-06    -340.954E-06
            5506               1     656.967E-06     641.046E-06    -379.283E-06    -369.844E-06
            5507               1     705.620E-06     710.005E-06    -303.578E-06    -306.058E-06
            5508               1     787.415E-06     780.601E-06    -335.315E-06    -345.846E-06
            5509               1     813.112E-06     802.028E-06    -368.950E-06    -376.511E-06
            5510               1     799.231E-06     783.481E-06    -370.131E-06    -374.008E-06
            5511               1     783.114E-06     775.022E-06    -371.569E-06    -381.397E-06
            5512               1     766.261E-06     750.957E-06    -372.202E-06    -376.510E-06
            5513               1     747.752E-06     740.561E-06    -370.168E-06    -379.598E-06
            5514               1     734.858E-06     722.442E-06    -371.582E-06    -377.078E-06
            5515               1     720.012E-06     713.179E-06    -370.551E-06    -378.950E-06
            5516               1     709.029E-06     700.326E-06    -371.563E-06    -378.105E-06
            5517               1     697.954E-06     692.127E-06    -371.670E-06    -379.103E-06
            5518               1     687.725E-06     683.207E-06    -371.799E-06    -379.173E-06
            5519               1     680.254E-06     676.543E-06    -372.846E-06    -379.612E-06
            5520               1     670.740E-06     671.129E-06    -372.152E-06    -380.375E-06
            5521               1     665.872E-06     667.342E-06    -373.509E-06    -380.915E-06
            5522               1     662.197E-06     664.641E-06    -374.952E-06    -381.820E-06
            5523               1     652.707E-06     663.367E-06    -372.745E-06    -381.977E-06
            5524               1     687.230E-06     657.878E-06    -396.085E-06    -378.115E-06
            5525               1     702.406E-06     570.258E-06    -404.846E-06    -329.189E-06
            5526               1     673.951E-06     616.536E-06    -266.298E-06    -261.560E-06
            5527               1     739.111E-06     695.688E-06    -312.737E-06    -315.700E-06
            5528               1     784.975E-06     736.922E-06    -339.442E-06    -342.259E-06
            5529               1     790.345E-06     748.617E-06    -356.926E-06    -363.219E-06
            5530               1     787.672E-06     742.075E-06    -366.257E-06    -369.091E-06
            5531               1     777.667E-06     740.093E-06    -371.225E-06    -378.232E-06
            5532               1     768.512E-06     726.908E-06    -375.740E-06    -379.262E-06
            5533               1     756.295E-06     721.583E-06    -377.321E-06    -383.810E-06
            5534               1     746.422E-06     710.217E-06    -379.731E-06    -384.105E-06
            5535               1     735.340E-06     704.047E-06    -380.646E-06    -386.379E-06
            5536               1     725.492E-06     695.657E-06    -381.768E-06    -386.802E-06
            5537               1     716.290E-06     689.818E-06    -382.666E-06    -387.715E-06
            5538               1     706.841E-06     684.560E-06    -382.952E-06    -388.482E-06
            5539               1     699.592E-06     679.496E-06    -383.834E-06    -388.280E-06
            5540               1     690.923E-06     678.840E-06    -383.470E-06    -390.265E-06
            5541               1     683.598E-06     673.278E-06    -383.318E-06    -388.134E-06
            5542               1     669.380E-06     689.599E-06    -378.428E-06    -398.127E-06
            5543               1     646.181E-06     701.607E-06    -366.643E-06    -404.684E-06
            5544               1     698.722E-06     722.439E-06    -401.431E-06    -413.628E-06
            5545               1     543.480E-06     459.137E-06    -211.568E-06    -213.709E-06
            5546               1     689.495E-06     600.744E-06    -282.720E-06    -280.043E-06
            5547               1     740.023E-06     664.214E-06    -317.332E-06    -319.774E-06
            5548               1     777.852E-06     699.916E-06    -346.408E-06    -347.294E-06
            5549               1     789.346E-06     718.702E-06    -363.988E-06    -366.560E-06
            5550               1     792.320E-06     720.231E-06    -374.752E-06    -375.963E-06
            5551               1     788.328E-06     722.408E-06    -382.011E-06    -384.516E-06
            5552               1     781.682E-06     716.012E-06    -386.266E-06    -387.798E-06
            5553               1     773.142E-06     712.695E-06    -389.388E-06    -391.659E-06
            5554               1     764.137E-06     705.998E-06    -391.299E-06    -393.083E-06
            5555               1     754.762E-06     701.617E-06    -392.811E-06    -394.834E-06
            5556               1     745.720E-06     696.835E-06    -393.833E-06    -395.785E-06
            5557               1     736.404E-06     692.734E-06    -394.398E-06    -396.158E-06
            5558               1     728.578E-06     691.186E-06    -395.301E-06    -397.409E-06
            5559               1     718.504E-06     686.037E-06    -394.417E-06    -395.591E-06
            5560               1     711.386E-06     692.281E-06    -394.508E-06    -399.662E-06
            5561               1     697.204E-06     682.483E-06    -389.620E-06    -393.500E-06
            5562               1     680.017E-06     717.629E-06    -380.172E-06    -410.492E-06
            5563               1     604.197E-06     755.548E-06    -319.331E-06    -420.285E-06
            5564               1     84.1827E-03     86.8644E-03     13.9213E-03     14.3136E-03
            5565               1     63.4027E-03     66.0567E-03     16.7219E-03     16.5418E-03
            5566               1     57.5355E-03     60.3488E-03     12.4312E-03     12.6037E-03
            5567               1     54.3408E-03     57.2651E-03     12.4995E-03     12.4503E-03
            5568               1     52.4891E-03     55.4686E-03     10.6924E-03     10.7595E-03
            5569               1     51.4075E-03     54.4547E-03     10.3183E-03     10.2922E-03
            5570               1     50.6638E-03     53.7112E-03     9.19885E-03     9.21448E-03
            5571               1     50.1301E-03     53.1977E-03     8.67525E-03     8.65321E-03
            5572               1     49.7151E-03     52.7477E-03     7.84345E-03     7.83291E-03
            5573               1     49.3134E-03     52.3418E-03     7.28115E-03     7.26252E-03
            5574               1     48.9895E-03     51.9459E-03     6.61546E-03     6.58520E-03
            5575               1     48.5970E-03     51.5383E-03     6.04680E-03     6.02897E-03
            5576               1     48.3400E-03     51.1369E-03     5.50537E-03     5.44387E-03
            5577               1     47.9698E-03     50.7484E-03     4.91812E-03     4.89970E-03
            5578               1     47.9190E-03     50.4102E-03     4.50144E-03     4.38056E-03
            5579               1     47.7125E-03     50.2311E-03     3.83046E-03     3.83602E-03
            5580               1     48.2725E-03     50.2793E-03     3.57549E-03     3.35842E-03
            5581               1     48.5698E-03     50.8857E-03     2.57146E-03     2.73627E-03
            5582               1     50.8677E-03     52.5242E-03     2.56748E-03     2.26750E-03
            5583               1     69.1149E-03     70.7789E-03     2.54099E-03     3.34759E-03
            5584               1     69.1975E-03     71.0405E-03     12.6319E-03     12.9509E-03
            5585               1     58.1156E-03     60.5468E-03     12.4697E-03     12.5359E-03
            5586               1     56.6097E-03     59.0165E-03     11.2893E-03     11.4757E-03
            5587               1     53.6876E-03     56.2250E-03     10.8946E-03     10.8849E-03
            5588               1     52.9650E-03     55.5066E-03     9.78250E-03     9.85191E-03
            5589               1     51.8231E-03     54.3979E-03     9.26912E-03     9.22584E-03
            5590               1     51.4263E-03     53.9857E-03     8.40637E-03     8.40080E-03
            5591               1     50.7907E-03     53.3631E-03     7.86443E-03     7.81580E-03
            5592               1     50.4858E-03     53.0135E-03     7.18445E-03     7.13068E-03
            5593               1     49.9811E-03     52.5229E-03     6.64173E-03     6.59507E-03
            5594               1     49.7186E-03     52.1664E-03     6.09676E-03     5.98733E-03
            5595               1     49.2320E-03     51.7186E-03     5.53640E-03     5.48449E-03
            5596               1     49.0912E-03     51.3892E-03     5.10967E-03     4.90370E-03
            5597               1     48.6477E-03     51.0692E-03     4.48618E-03     4.43345E-03
            5598               1     48.9252E-03     50.9844E-03     4.19201E-03     3.84216E-03
            5599               1     48.7235E-03     51.1541E-03     3.41709E-03     3.45495E-03
            5600               1     50.2967E-03     52.0856E-03     3.25637E-03     2.83592E-03
            5601               1     50.9671E-03     53.6368E-03     2.26962E-03     2.71733E-03
            5602               1     60.2391E-03     62.5297E-03     1.01221E-03     1.32077E-03
            5603               1     61.4034E-03     63.4836E-03     4.93942E-03     5.65719E-03
            5604               1     61.1623E-03     63.0227E-03     10.0307E-03     10.3219E-03
            5605               1     55.9658E-03     58.1463E-03     9.88491E-03     10.0272E-03
            5606               1     55.6640E-03     57.7393E-03     9.79980E-03     9.94732E-03
            5607               1     53.5697E-03     55.7115E-03     9.31922E-03     9.30189E-03
            5608               1     53.2896E-03     55.3851E-03     8.69047E-03     8.71824E-03
            5609               1     52.2634E-03     54.3878E-03     8.16995E-03     8.11054E-03
            5610               1     52.0068E-03     54.0901E-03     7.56541E-03     7.52067E-03
            5611               1     51.3424E-03     53.4607E-03     7.06865E-03     7.00704E-03
            5612               1     51.1028E-03     53.1593E-03     6.56216E-03     6.45969E-03
            5613               1     50.5404E-03     52.6646E-03     6.07267E-03     6.01064E-03
            5614               1     50.3689E-03     52.3720E-03     5.66208E-03     5.47648E-03
            5615               1     49.8314E-03     51.9943E-03     5.14795E-03     5.07660E-03
            5616               1     49.9113E-03     51.8253E-03     4.84347E-03     4.53163E-03
            5617               1     49.4919E-03     51.7700E-03     4.31653E-03     4.24864E-03
            5618               1     50.3647E-03     52.1303E-03     4.15420E-03     3.75294E-03
            5619               1     50.5778E-03     53.0110E-03     3.87592E-03     3.88520E-03
            5620               1     53.6481E-03     55.1911E-03     3.83484E-03     3.84490E-03
            5621               1     56.2927E-03     57.9967E-03    -1.42437E-03    -627.122E-06
            5622               1     57.2460E-03     59.2573E-03     3.45480E-03     3.73923E-03
            5623               1     57.1944E-03     59.1410E-03     5.49658E-03     6.00089E-03
            5624               1     57.4691E-03     59.2202E-03     8.26153E-03     8.46685E-03
            5625               1     55.0180E-03     56.8316E-03     8.14073E-03     8.21888E-03
            5626               1     55.0225E-03     56.7014E-03     8.34656E-03     8.41096E-03
            5627               1     53.6054E-03     55.3193E-03     7.91636E-03     7.86886E-03
            5628               1     53.4431E-03     55.0803E-03     7.60143E-03     7.57570E-03
            5629               1     52.5813E-03     54.2673E-03     7.17908E-03     7.11443E-03
            5630               1     52.3834E-03     54.0165E-03     6.80903E-03     6.73102E-03
            5631               1     51.7488E-03     53.4574E-03     6.42065E-03     6.36078E-03
            5632               1     51.5828E-03     53.2170E-03     6.09164E-03     5.95804E-03
            5633               1     51.0211E-03     52.8086E-03     5.71182E-03     5.65168E-03
            5634               1     50.9918E-03     52.6287E-03     5.45011E-03     5.23562E-03
            5635               1     50.4886E-03     52.4424E-03     5.10819E-03     5.02866E-03
            5636               1     50.8645E-03     52.4980E-03     4.97896E-03     4.68297E-03
            5637               1     50.7190E-03     52.8665E-03     4.96297E-03     4.81056E-03
            5638               1     52.1169E-03     53.6804E-03     5.14615E-03     4.96250E-03
            5639               1     53.8262E-03     55.3817E-03     6.68153E-03     6.21867E-03
            5640               1     51.5591E-03     53.6436E-03    -2.26456E-03    -2.07457E-03
            5641               1     54.1332E-03     55.8066E-03     670.661E-06     1.33918E-03
            5642               1     55.2798E-03     57.1115E-03     4.21709E-03     4.41802E-03
            5643               1     55.3694E-03     56.9377E-03     5.22752E-03     5.44731E-03
            5644               1     55.7599E-03     57.1505E-03     6.85664E-03     6.93371E-03
            5645               1     54.5190E-03     55.8785E-03     6.73520E-03     6.71041E-03
            5646               1     54.5063E-03     55.7162E-03     7.03147E-03     7.01133E-03
            5647               1     53.5442E-03     54.8078E-03     6.75965E-03     6.69849E-03
            5648               1     53.4055E-03     54.5984E-03     6.68173E-03     6.62325E-03
            5649               1     52.7139E-03     53.9813E-03     6.43328E-03     6.37973E-03
            5650               1     52.5753E-03     53.7919E-03     6.27993E-03     6.19259E-03
            5651               1     52.0196E-03     53.3620E-03     6.05792E-03     6.01770E-03
            5652               1     51.9551E-03     53.2149E-03     5.91515E-03     5.79200E-03
            5653               1     51.4589E-03     52.9668E-03     5.73741E-03     5.69863E-03
            5654               1     51.5796E-03     52.9194E-03     5.67604E-03     5.51322E-03
            5655               1     51.2194E-03     52.9725E-03     5.73605E-03     5.63599E-03
            5656               1     51.7247E-03     53.1867E-03     5.98000E-03     5.81073E-03
            5657               1     52.1720E-03     53.8604E-03     7.01307E-03     6.63579E-03
            5658               1     53.0934E-03     54.7578E-03     8.30346E-03     8.20278E-03
            5659               1     48.8607E-03     50.2900E-03    -3.89133E-03    -3.06331E-03
            5660               1     50.6966E-03     52.8132E-03    -168.577E-06    -84.1977E-06
            5661               1     53.2554E-03     54.5720E-03     1.64510E-03     1.92038E-03
            5662               1     54.3191E-03     55.6770E-03     3.99099E-03     4.02622E-03
            5663               1     54.5078E-03     55.5601E-03     4.45980E-03     4.42078E-03
            5664               1     54.6778E-03     55.5002E-03     5.57600E-03     5.51798E-03
            5665               1     53.9915E-03     54.8465E-03     5.59893E-03     5.53566E-03
            5666               1     53.9299E-03     54.6781E-03     5.99156E-03     5.93200E-03
            5667               1     53.2801E-03     54.1014E-03     5.95191E-03     5.90353E-03
            5668               1     53.1847E-03     53.9597E-03     6.08519E-03     6.02540E-03
            5669               1     52.6651E-03     53.5349E-03     6.05613E-03     6.02940E-03
            5670               1     52.6110E-03     53.4366E-03     6.11443E-03     6.05240E-03
            5671               1     52.1744E-03     53.1697E-03     6.12044E-03     6.11719E-03
            5672               1     52.2067E-03     53.1240E-03     6.19326E-03     6.13910E-03
            5673               1     51.8241E-03     53.0419E-03     6.34505E-03     6.33913E-03
            5674               1     51.9632E-03     53.0714E-03     6.59417E-03     6.56251E-03
            5675               1     51.7688E-03     53.2002E-03     7.28162E-03     7.13528E-03
            5676               1     51.8943E-03     53.3524E-03     8.25483E-03     8.17999E-03
            5677               1     52.5903E-03     53.6760E-03     10.2777E-03     9.75213E-03
            5678               1     44.7186E-03     47.2798E-03    -4.44058E-03    -4.71604E-03
            5679               1     49.0235E-03     49.9705E-03    -2.02706E-03    -1.69281E-03
            5680               1     50.9919E-03     52.6445E-03     560.956E-06     500.473E-06
            5681               1     53.0322E-03     53.7940E-03     1.47779E-03     1.26764E-03
            5682               1     53.4425E-03     53.9116E-03     3.14114E-03     2.96640E-03
            5683               1     53.6042E-03     54.0377E-03     3.62076E-03     3.52248E-03
            5684               1     53.6396E-03     53.9398E-03     4.57729E-03     4.48327E-03
            5685               1     53.2606E-03     53.6332E-03     4.85377E-03     4.80520E-03
            5686               1     53.2320E-03     53.5574E-03     5.37694E-03     5.32362E-03
            5687               1     52.8229E-03     53.2211E-03     5.59243E-03     5.57171E-03
            5688               1     52.8095E-03     53.1822E-03     5.92812E-03     5.89406E-03
            5689               1     52.4635E-03     52.9377E-03     6.14495E-03     6.15588E-03
            5690               1     52.4933E-03     52.9317E-03     6.42593E-03     6.42365E-03
            5691               1     52.1934E-03     52.8128E-03     6.72490E-03     6.77340E-03
            5692               1     52.2445E-03     52.8229E-03     7.07341E-03     7.13566E-03
            5693               1     51.9467E-03     52.7916E-03     7.65259E-03     7.70322E-03
            5694               1     51.8470E-03     52.7606E-03     8.36377E-03     8.47451E-03
            5695               1     51.4782E-03     52.5369E-03     9.62062E-03     9.51920E-03
            5696               1     51.0637E-03     52.4090E-03     11.5479E-03     11.3930E-03
            5697               1     43.3119E-03     43.3311E-03    -6.09733E-03    -5.30080E-03
            5698               1     46.0435E-03     48.6895E-03    -3.01155E-03    -3.26580E-03
            5699               1     50.3231E-03     50.7681E-03    -1.94509E-03    -2.60950E-03
            5700               1     50.8422E-03     50.8794E-03    -44.4633E-06    -463.556E-06
            5701               1     52.0787E-03     52.0099E-03     960.153E-06     766.311E-06
            5702               1     52.2606E-03     52.0871E-03     2.39389E-03     2.22530E-03
            5703               1     52.4347E-03     52.3372E-03     3.11486E-03     3.05717E-03
            5704               1     52.5282E-03     52.4011E-03     4.08028E-03     4.01671E-03
            5705               1     52.3698E-03     52.3056E-03     4.61119E-03     4.59273E-03
            5706               1     52.4388E-03     52.3637E-03     5.27889E-03     5.25248E-03
            5707               1     52.2323E-03     52.2120E-03     5.73470E-03     5.74321E-03
            5708               1     52.3023E-03     52.2669E-03     6.26896E-03     6.27609E-03
            5709               1     52.1172E-03     52.1623E-03     6.75129E-03     6.80097E-03
            5710               1     52.1792E-03     52.2021E-03     7.28096E-03     7.35874E-03
            5711               1     51.9879E-03     52.1417E-03     7.92696E-03     8.03324E-03
            5712               1     51.9258E-03     52.1084E-03     8.61836E-03     8.81237E-03
            5713               1     51.5511E-03     51.8977E-03     9.62887E-03     9.78032E-03
            5714               1     51.0573E-03     51.6529E-03     10.8390E-03     11.0826E-03
            5715               1     49.9838E-03     50.6770E-03     12.4913E-03     12.5133E-03
            5716               1     38.6512E-03     44.2390E-03    -6.99165E-03    -7.98841E-03
            5717               1     47.3278E-03     47.0506E-03    -5.89454E-03    -7.53292E-03
            5718               1     47.2670E-03     46.5245E-03    -4.02531E-03    -4.82184E-03
            5719               1     49.3335E-03     48.5413E-03    -2.26730E-03    -2.59167E-03
            5720               1     49.7414E-03     49.0114E-03    -472.790E-06    -723.327E-06
            5721               1     50.5731E-03     49.9549E-03     834.975E-06     762.914E-06
            5722               1     50.9205E-03     50.3353E-03     2.22244E-03     2.14716E-03
            5723               1     51.1774E-03     50.6550E-03     3.15220E-03     3.13631E-03
            5724               1     51.4177E-03     50.9080E-03     4.17289E-03     4.14880E-03
            5725               1     51.4419E-03     50.9621E-03     4.89432E-03     4.89688E-03
            5726               1     51.6006E-03     51.1221E-03     5.69420E-03     5.69377E-03
            5727               1     51.5539E-03     51.0940E-03     6.36201E-03     6.38935E-03
            5728               1     51.6532E-03     51.1799E-03     7.09443E-03     7.13736E-03
            5729               1     51.5813E-03     51.1239E-03     7.85710E-03     7.93090E-03
            5730               1     51.5876E-03     51.1099E-03     8.67512E-03     8.80984E-03
            5731               1     51.4221E-03     50.9566E-03     9.69243E-03     9.84647E-03
            5732               1     51.1674E-03     50.7356E-03     10.7795E-03     11.0501E-03
            5733               1     50.5534E-03     50.1703E-03     12.1912E-03     12.4708E-03
            5734               1     49.7184E-03     49.5587E-03     13.8562E-03     14.1855E-03
            5735               1     46.0444E-03     41.1727E-03    -10.3686E-03    -13.3274E-03
            5736               1     44.2193E-03     41.4917E-03    -9.57699E-03    -10.4108E-03
            5737               1     45.3547E-03     43.4101E-03    -6.08466E-03    -6.38106E-03
            5738               1     46.2668E-03     44.8195E-03    -3.96101E-03    -4.15369E-03
            5739               1     47.4856E-03     46.3135E-03    -1.82721E-03    -1.88429E-03
            5740               1     48.3532E-03     47.3110E-03    -44.8894E-06    -95.6831E-06
            5741               1     49.1099E-03     48.1438E-03     1.36608E-03     1.35602E-03
            5742               1     49.6978E-03     48.7717E-03     2.72990E-03     2.71603E-03
            5743               1     50.0744E-03     49.1632E-03     3.73403E-03     3.73356E-03
            5744               1     50.4156E-03     49.5246E-03     4.78270E-03     4.77982E-03
            5745               1     50.5695E-03     49.6682E-03     5.61462E-03     5.62000E-03
            5746               1     50.7327E-03     49.8378E-03     6.51346E-03     6.52288E-03
            5747               1     50.7684E-03     49.8289E-03     7.36705E-03     7.38469E-03
            5748               1     50.7954E-03     49.8308E-03     8.29726E-03     8.33608E-03
            5749               1     50.7476E-03     49.6719E-03     9.35426E-03     9.39651E-03
            5750               1     50.6189E-03     49.4601E-03     10.5046E-03     10.6010E-03
            5751               1     50.4243E-03     49.0501E-03     11.9403E-03     12.0314E-03
            5752               1     50.0087E-03     48.4812E-03     13.4807E-03     13.6644E-03
            5753               1     49.3753E-03     47.5476E-03     15.4612E-03     15.6417E-03
            5754               1     63.0158E-03     65.7595E-03     10.3404E-03     10.3134E-03
            5755               1     45.9785E-03     48.2137E-03     12.8895E-03     12.6418E-03
            5756               1     40.7695E-03     43.0252E-03     9.91251E-03     10.0163E-03
            5757               1     38.0967E-03     40.3299E-03     10.3309E-03     10.2659E-03
            5758               1     36.2953E-03     38.5526E-03     9.18898E-03     9.23684E-03
            5759               1     35.3409E-03     37.6087E-03     9.17873E-03     9.15192E-03
            5760               1     34.5123E-03     36.7847E-03     8.48835E-03     8.50146E-03
            5761               1     33.9802E-03     36.2546E-03     8.28657E-03     8.26890E-03
            5762               1     33.4599E-03     35.7185E-03     7.76780E-03     7.76191E-03
            5763               1     33.0214E-03     35.2766E-03     7.48510E-03     7.47190E-03
            5764               1     32.6087E-03     34.8209E-03     7.07459E-03     7.05451E-03
            5765               1     32.1796E-03     34.3885E-03     6.76469E-03     6.75369E-03
            5766               1     31.8581E-03     33.9696E-03     6.45606E-03     6.41412E-03
            5767               1     31.4621E-03     33.5809E-03     6.13739E-03     6.12923E-03
            5768               1     31.3564E-03     33.2694E-03     5.95337E-03     5.87027E-03
            5769               1     31.1151E-03     33.1002E-03     5.60393E-03     5.61958E-03
            5770               1     31.5723E-03     33.1764E-03     5.59121E-03     5.44318E-03
            5771               1     31.7355E-03     33.6997E-03     5.05022E-03     5.19210E-03
            5772               1     33.6928E-03     35.1407E-03     5.28742E-03     5.09227E-03
            5773               1     51.3135E-03     51.8994E-03     1.60056E-03     2.11063E-03
            5774               1     50.1019E-03     51.4467E-03     10.1359E-03     10.1928E-03
            5775               1     41.0860E-03     42.8887E-03     10.3315E-03     10.2811E-03
            5776               1     39.4787E-03     41.2880E-03     9.65413E-03     9.76378E-03
            5777               1     37.1072E-03     38.9696E-03     9.62572E-03     9.58643E-03
            5778               1     36.2709E-03     38.1501E-03     8.92618E-03     8.97597E-03
            5779               1     35.2895E-03     37.1669E-03     8.73282E-03     8.69264E-03
            5780               1     34.7826E-03     36.6597E-03     8.17639E-03     8.17579E-03
            5781               1     34.1712E-03     36.0488E-03     7.90330E-03     7.86693E-03
            5782               1     33.7729E-03     35.6240E-03     7.46368E-03     7.42889E-03
            5783               1     33.2477E-03     35.1127E-03     7.15868E-03     7.12720E-03
            5784               1     32.9078E-03     34.7013E-03     6.82042E-03     6.74697E-03
            5785               1     32.3924E-03     34.2317E-03     6.49495E-03     6.46456E-03
            5786               1     32.1783E-03     33.8600E-03     6.26385E-03     6.12408E-03
            5787               1     31.7053E-03     33.5202E-03     5.90584E-03     5.88461E-03
            5788               1     31.8679E-03     33.3692E-03     5.81101E-03     5.57433E-03
            5789               1     31.6140E-03     33.4814E-03     5.37992E-03     5.43915E-03
            5790               1     32.8581E-03     34.1783E-03     5.43535E-03     5.16430E-03
            5791               1     33.3861E-03     35.5126E-03     4.92825E-03     5.29289E-03
            5792               1     43.2180E-03     44.9064E-03     524.214E-06     833.209E-06
            5793               1     43.5209E-03     44.7854E-03     4.31221E-03     4.83101E-03
            5794               1     42.9839E-03     44.2658E-03     8.70199E-03     8.84933E-03
            5795               1     38.7654E-03     40.3180E-03     8.89939E-03     8.95562E-03
            5796               1     38.3277E-03     39.8206E-03     9.00223E-03     9.09828E-03
            5797               1     36.6195E-03     38.1448E-03     8.83974E-03     8.80836E-03
            5798               1     36.2300E-03     37.7325E-03     8.44319E-03     8.46509E-03
            5799               1     35.3235E-03     36.8343E-03     8.17475E-03     8.12669E-03
            5800               1     34.9756E-03     36.4618E-03     7.76640E-03     7.73825E-03
            5801               1     34.3248E-03     35.8346E-03     7.47470E-03     7.43051E-03
            5802               1     34.0031E-03     35.4637E-03     7.13559E-03     7.06734E-03
            5803               1     33.4177E-03     34.9376E-03     6.83448E-03     6.79419E-03
            5804               1     33.1619E-03     34.5718E-03     6.57766E-03     6.45234E-03
            5805               1     32.5928E-03     34.1463E-03     6.26151E-03     6.22208E-03
            5806               1     32.5583E-03     33.8797E-03     6.11133E-03     5.89886E-03
            5807               1     32.1120E-03     33.7492E-03     5.81066E-03     5.78574E-03
            5808               1     32.7451E-03     33.9345E-03     5.81758E-03     5.54466E-03
            5809               1     32.9476E-03     34.6708E-03     5.77114E-03     5.80676E-03
            5810               1     35.3749E-03     36.4473E-03     5.95091E-03     5.97058E-03
            5811               1     39.5240E-03     40.4732E-03    -1.18346E-03    -613.632E-06
            5812               1     39.5756E-03     40.9741E-03     3.27593E-03     3.52246E-03
            5813               1     39.3433E-03     40.6340E-03     5.40827E-03     5.78586E-03
            5814               1     39.5653E-03     40.7473E-03     7.85190E-03     7.98746E-03
            5815               1     37.5931E-03     38.8427E-03     8.02392E-03     8.06567E-03
            5816               1     37.5485E-03     38.6996E-03     8.27876E-03     8.32416E-03
            5817               1     36.3507E-03     37.5252E-03     8.07965E-03     8.03805E-03
            5818               1     36.1287E-03     37.2483E-03     7.86853E-03     7.85248E-03
            5819               1     35.3253E-03     36.4788E-03     7.61041E-03     7.56181E-03
            5820               1     35.0578E-03     36.1687E-03     7.34443E-03     7.29244E-03
            5821               1     34.4146E-03     35.5850E-03     7.08972E-03     7.04740E-03
            5822               1     34.1668E-03     35.2665E-03     6.85930E-03     6.76955E-03
            5823               1     33.5725E-03     34.7986E-03     6.60835E-03     6.56949E-03
            5824               1     33.4372E-03     34.5145E-03     6.44498E-03     6.29944E-03
            5825               1     32.9026E-03     34.2368E-03     6.23498E-03     6.18865E-03
            5826               1     33.1156E-03     34.1529E-03     6.21220E-03     6.00589E-03
            5827               1     32.9774E-03     34.3976E-03     6.29338E-03     6.19748E-03
            5828               1     34.0888E-03     35.0559E-03     6.59407E-03     6.45138E-03
            5829               1     35.8683E-03     36.6859E-03     7.97839E-03     7.62364E-03
            5830               1     34.9021E-03     36.2673E-03    -1.74778E-03    -1.51685E-03
            5831               1     36.5437E-03     37.5734E-03     1.31804E-03     1.83167E-03
            5832               1     37.3668E-03     38.5890E-03     4.56390E-03     4.74787E-03
            5833               1     37.4771E-03     38.5041E-03     5.78783E-03     5.96395E-03
            5834               1     37.9615E-03     38.8480E-03     7.21857E-03     7.27939E-03
            5835               1     36.9462E-03     37.8254E-03     7.29885E-03     7.28045E-03
            5836               1     36.9708E-03     37.7314E-03     7.55086E-03     7.53768E-03
            5837               1     36.0974E-03     36.9047E-03     7.39229E-03     7.34649E-03
            5838               1     35.9330E-03     36.6817E-03     7.32425E-03     7.28423E-03
            5839               1     35.2489E-03     36.0566E-03     7.14668E-03     7.10671E-03
            5840               1     35.0486E-03     35.8072E-03     7.01980E-03     6.96075E-03
            5841               1     34.4644E-03     35.3227E-03     6.85588E-03     6.82562E-03
            5842               1     34.3101E-03     35.0823E-03     6.74460E-03     6.66169E-03
            5843               1     33.7751E-03     34.7426E-03     6.61924E-03     6.59092E-03
            5844               1     33.7773E-03     34.5747E-03     6.59192E-03     6.47886E-03
            5845               1     33.4006E-03     34.5088E-03     6.66809E-03     6.59711E-03
            5846               1     33.7837E-03     34.6244E-03     6.94198E-03     6.80506E-03
            5847               1     34.3045E-03     35.2450E-03     7.83293E-03     7.55157E-03
            5848               1     35.3579E-03     36.2992E-03     9.05667E-03     8.91711E-03
            5849               1     32.0697E-03     32.8581E-03    -2.78081E-03    -2.14474E-03
            5850               1     33.1174E-03     34.5101E-03     797.840E-06     937.301E-06
            5851               1     35.2238E-03     36.0309E-03     2.88606E-03     3.12312E-03
            5852               1     36.3989E-03     37.2254E-03     5.00513E-03     5.06192E-03
            5853               1     36.6345E-03     37.2487E-03     5.65661E-03     5.64648E-03
            5854               1     37.0263E-03     37.4505E-03     6.56317E-03     6.52538E-03
            5855               1     36.4011E-03     36.8718E-03     6.63168E-03     6.59021E-03
            5856               1     36.4059E-03     36.7843E-03     6.91268E-03     6.87013E-03
            5857               1     35.7656E-03     36.2088E-03     6.86914E-03     6.83356E-03
            5858               1     35.6514E-03     36.0497E-03     6.94006E-03     6.89830E-03
            5859               1     35.1086E-03     35.5830E-03     6.89400E-03     6.87094E-03
            5860               1     34.9909E-03     35.4178E-03     6.90861E-03     6.86684E-03
            5861               1     34.5160E-03     35.0746E-03     6.89210E-03     6.88226E-03
            5862               1     34.4584E-03     34.9333E-03     6.92388E-03     6.88819E-03
            5863               1     34.0435E-03     34.7454E-03     7.02746E-03     7.01150E-03
            5864               1     34.1078E-03     34.6874E-03     7.22340E-03     7.19620E-03
            5865               1     33.9351E-03     34.7394E-03     7.76351E-03     7.64437E-03
            5866               1     34.1979E-03     34.9733E-03     8.62757E-03     8.52983E-03
            5867               1     35.1293E-03     35.5569E-03     10.2938E-03     9.89744E-03
            5868               1     27.8730E-03     29.5495E-03    -3.07926E-03    -3.18867E-03
            5869               1     31.0572E-03     31.5633E-03    -257.277E-06     27.2374E-06
            5870               1     33.0121E-03     34.0227E-03     2.24078E-03     2.25779E-03
            5871               1     34.9133E-03     35.2657E-03     3.44257E-03     3.32184E-03
            5872               1     35.8036E-03     35.9127E-03     4.80572E-03     4.69152E-03
            5873               1     35.9274E-03     36.0465E-03     5.24019E-03     5.18382E-03
            5874               1     36.1746E-03     36.1736E-03     5.96070E-03     5.89299E-03
            5875               1     35.7775E-03     35.8522E-03     6.13884E-03     6.10713E-03
            5876               1     35.7978E-03     35.8246E-03     6.50069E-03     6.46157E-03
            5877               1     35.3634E-03     35.4540E-03     6.61636E-03     6.59851E-03
            5878               1     35.3244E-03     35.3866E-03     6.82830E-03     6.80423E-03
            5879               1     34.9445E-03     35.0877E-03     6.94805E-03     6.94696E-03
            5880               1     34.9140E-03     35.0199E-03     7.11454E-03     7.11433E-03
            5881               1     34.5813E-03     34.8251E-03     7.30299E-03     7.32054E-03
            5882               1     34.5748E-03     34.7717E-03     7.52211E-03     7.56768E-03
            5883               1     34.2721E-03     34.6674E-03     7.93391E-03     7.94504E-03
            5884               1     34.2359E-03     34.6483E-03     8.46468E-03     8.53613E-03
            5885               1     33.9737E-03     34.5031E-03     9.41707E-03     9.33230E-03
            5886               1     34.1051E-03     34.7497E-03     11.0601E-03     10.8905E-03
            5887               1     25.7901E-03     25.5165E-03    -4.00040E-03    -3.38022E-03
            5888               1     27.8926E-03     29.6078E-03    -777.986E-06    -880.377E-06
            5889               1     31.7567E-03     31.8104E-03     909.961E-06     463.857E-06
            5890               1     33.2620E-03     32.9793E-03     2.47568E-03     2.18573E-03
            5891               1     34.3797E-03     34.0777E-03     3.30457E-03     3.18750E-03
            5892               1     34.9583E-03     34.5512E-03     4.41338E-03     4.29175E-03
            5893               1     35.0699E-03     34.7539E-03     4.91058E-03     4.87817E-03
            5894               1     35.2956E-03     34.9416E-03     5.62103E-03     5.57320E-03
            5895               1     35.0984E-03     34.8071E-03     5.95742E-03     5.94436E-03
            5896               1     35.1865E-03     34.8796E-03     6.42268E-03     6.40253E-03
            5897               1     34.9479E-03     34.6903E-03     6.70592E-03     6.70559E-03
            5898               1     34.9908E-03     34.7196E-03     7.05819E-03     7.06322E-03
            5899               1     34.7805E-03     34.5750E-03     7.36814E-03     7.38849E-03
            5900               1     34.8067E-03     34.5875E-03     7.70509E-03     7.76198E-03
            5901               1     34.6125E-03     34.4930E-03     8.14604E-03     8.19415E-03
            5902               1     34.5679E-03     34.4772E-03     8.59575E-03     8.74000E-03
            5903               1     34.2567E-03     34.2938E-03     9.32100E-03     9.39468E-03
            5904               1     34.0044E-03     34.2164E-03     10.1863E-03     10.3765E-03
            5905               1     33.2083E-03     33.5397E-03     11.3968E-03     11.4322E-03
            5906               1     20.7436E-03     24.6148E-03    -4.45500E-03    -5.08882E-03
            5907               1     27.4940E-03     26.9266E-03    -1.95249E-03    -3.11465E-03
            5908               1     29.5566E-03     28.5992E-03    -385.817E-06    -964.618E-06
            5909               1     31.6160E-03     30.7129E-03     902.104E-06     691.406E-06
            5910               1     32.6346E-03     31.7514E-03     2.32937E-03     2.14555E-03
            5911               1     33.4234E-03     32.6682E-03     3.23807E-03     3.19853E-03
            5912               1     33.9751E-03     33.2291E-03     4.30083E-03     4.24382E-03
            5913               1     34.1853E-03     33.5067E-03     4.92608E-03     4.91808E-03
            5914               1     34.4822E-03     33.8073E-03     5.67555E-03     5.65635E-03
            5915               1     34.4703E-03     33.8296E-03     6.14870E-03     6.14805E-03
            5916               1     34.6314E-03     33.9930E-03     6.70899E-03     6.70785E-03
            5917               1     34.5640E-03     33.9502E-03     7.14753E-03     7.15844E-03
            5918               1     34.6559E-03     34.0413E-03     7.63924E-03     7.67004E-03
            5919               1     34.5912E-03     34.0000E-03     8.15552E-03     8.18956E-03
            5920               1     34.6178E-03     34.0355E-03     8.69139E-03     8.79101E-03
            5921               1     34.5168E-03     33.9556E-03     9.40721E-03     9.48449E-03
            5922               1     34.3763E-03     33.8871E-03     10.1144E-03     10.3274E-03
            5923               1     33.9600E-03     33.5290E-03     11.1325E-03     11.2981E-03
            5924               1     33.4923E-03     33.2900E-03     12.2366E-03     12.5450E-03
            5925               1     23.4476E-03     20.0172E-03    -5.54974E-03    -7.66975E-03
            5926               1     25.4161E-03     22.9545E-03    -4.26851E-03    -4.90647E-03
            5927               1     27.5943E-03     25.7608E-03    -2.04816E-03    -2.24212E-03
            5928               1     29.2151E-03     27.7411E-03    -259.341E-06    -407.863E-06
            5929               1     30.6474E-03     29.4160E-03     1.22032E-03     1.18893E-03
            5930               1     31.7405E-03     30.5972E-03     2.63876E-03     2.59891E-03
            5931               1     32.4992E-03     31.4323E-03     3.62185E-03     3.61827E-03
            5932               1     33.1522E-03     32.1149E-03     4.66163E-03     4.65013E-03
            5933               1     33.4885E-03     32.4761E-03     5.34536E-03     5.34530E-03
            5934               1     33.8432E-03     32.8508E-03     6.10994E-03     6.10721E-03
            5935               1     33.9692E-03     32.9830E-03     6.66598E-03     6.66772E-03
            5936               1     34.1452E-03     33.1735E-03     7.29392E-03     7.30057E-03
            5937               1     34.1903E-03     33.2056E-03     7.86922E-03     7.87626E-03
            5938               1     34.2627E-03     33.2797E-03     8.50137E-03     8.53007E-03
            5939               1     34.2859E-03     33.2543E-03     9.23499E-03     9.25320E-03
            5940               1     34.2683E-03     33.2195E-03     10.0070E-03     10.0821E-03
            5941               1     34.2508E-03     33.0954E-03     11.0346E-03     11.0777E-03
            5942               1     34.0499E-03     32.8779E-03     12.0408E-03     12.2021E-03
            5943               1     33.8274E-03     32.5069E-03     13.4946E-03     13.5958E-03
            5944               1     42.3613E-03     45.1028E-03     6.83491E-03     6.43082E-03
            5945               1     29.1090E-03     30.8415E-03     9.08757E-03     8.77470E-03
            5946               1     24.6769E-03     26.2883E-03     7.40266E-03     7.44158E-03
            5947               1     22.7511E-03     24.1725E-03     8.13259E-03     8.04991E-03
            5948               1     21.2517E-03     22.6492E-03     7.70921E-03     7.73642E-03
            5949               1     20.7165E-03     22.0401E-03     8.04274E-03     8.01758E-03
            5950               1     20.0860E-03     21.3954E-03     7.86010E-03     7.86879E-03
            5951               1     19.8531E-03     21.1294E-03     7.97693E-03     7.96608E-03
            5952               1     19.4921E-03     20.7505E-03     7.83307E-03     7.83013E-03
            5953               1     19.3160E-03     20.5605E-03     7.83847E-03     7.83123E-03
            5954               1     19.0622E-03     20.2747E-03     7.71192E-03     7.69991E-03
            5955               1     18.9166E-03     20.1297E-03     7.67924E-03     7.67374E-03
            5956               1     18.7823E-03     19.9311E-03     7.59785E-03     7.57381E-03
            5957               1     18.7207E-03     19.8994E-03     7.57348E-03     7.57325E-03
            5958               1     18.8321E-03     19.8849E-03     7.58304E-03     7.53950E-03
            5959               1     18.9456E-03     20.1257E-03     7.57189E-03     7.59806E-03
            5960               1     19.5788E-03     20.5294E-03     7.72992E-03     7.65788E-03
            5961               1     19.9542E-03     21.3461E-03     7.61765E-03     7.74893E-03
            5962               1     21.7951E-03     22.8515E-03     8.00260E-03     7.91699E-03
            5963               1     34.0050E-03     33.5957E-03     734.394E-06     936.964E-06
            5964               1     31.6641E-03     32.4844E-03     7.62504E-03     7.44755E-03
            5965               1     24.8714E-03     25.9600E-03     8.14327E-03     7.96496E-03
            5966               1     23.3848E-03     24.5152E-03     8.00324E-03     8.03862E-03
            5967               1     21.8280E-03     22.9075E-03     8.31082E-03     8.24419E-03
            5968               1     21.1193E-03     22.2204E-03     8.10726E-03     8.13379E-03
            5969               1     20.5823E-03     21.6330E-03     8.21839E-03     8.18867E-03
            5970               1     20.1850E-03     21.2384E-03     8.04237E-03     8.04318E-03
            5971               1     19.8873E-03     20.9175E-03     8.03425E-03     8.01383E-03
            5972               1     19.5960E-03     20.6075E-03     7.87471E-03     7.85423E-03
            5973               1     19.3553E-03     20.3708E-03     7.81255E-03     7.79537E-03
            5974               1     19.1383E-03     20.0985E-03     7.68599E-03     7.64232E-03
            5975               1     18.9357E-03     19.9401E-03     7.61197E-03     7.59883E-03
            5976               1     18.8703E-03     19.7540E-03     7.54931E-03     7.47326E-03
            5977               1     18.7588E-03     19.7800E-03     7.48328E-03     7.48955E-03
            5978               1     19.0581E-03     19.8459E-03     7.52589E-03     7.41345E-03
            5979               1     19.1570E-03     20.3154E-03     7.45316E-03     7.54237E-03
            5980               1     20.3184E-03     21.0829E-03     7.63009E-03     7.53617E-03
            5981               1     21.0394E-03     22.5601E-03     7.56188E-03     7.88048E-03
            5982               1     26.8795E-03     28.0268E-03     53.3937E-06     362.638E-06
            5983               1     26.2189E-03     26.7177E-03     3.62907E-03     3.90479E-03
            5984               1     25.7057E-03     26.3896E-03     7.29886E-03     7.31857E-03
            5985               1     22.6725E-03     23.5632E-03     7.79854E-03     7.76441E-03
            5986               1     22.3806E-03     23.2424E-03     8.18676E-03     8.23057E-03
            5987               1     21.3371E-03     22.1896E-03     8.31866E-03     8.28508E-03
            5988               1     21.0449E-03     21.8946E-03     8.25502E-03     8.26819E-03
            5989               1     20.5416E-03     21.3649E-03     8.22740E-03     8.19886E-03
            5990               1     20.2606E-03     21.0767E-03     8.07098E-03     8.05543E-03
            5991               1     19.9090E-03     20.7227E-03     7.97821E-03     7.95293E-03
            5992               1     19.6499E-03     20.4292E-03     7.81986E-03     7.77823E-03
            5993               1     19.3510E-03     20.1671E-03     7.71053E-03     7.68872E-03
            5994               1     19.1684E-03     19.8968E-03     7.59072E-03     7.51710E-03
            5995               1     18.9358E-03     19.7699E-03     7.49789E-03     7.48292E-03
            5996               1     18.9810E-03     19.6348E-03     7.45557E-03     7.34448E-03
            5997               1     18.9483E-03     19.8418E-03     7.43118E-03     7.44306E-03
            5998               1     19.5835E-03     20.1584E-03     7.52133E-03     7.40643E-03
            5999               1     20.2357E-03     21.2030E-03     7.75663E-03     7.83002E-03
            6000               1     22.2929E-03     22.9016E-03     8.03476E-03     8.12954E-03
            6001               1     23.4681E-03     23.7034E-03    -901.462E-06    -643.810E-06
            6002               1     22.6997E-03     23.5169E-03     2.98686E-03     3.22575E-03
            6003               1     22.2697E-03     23.0003E-03     5.13880E-03     5.36176E-03
            6004               1     22.8587E-03     23.4757E-03     7.35180E-03     7.42480E-03
            6005               1     21.6102E-03     22.3357E-03     7.77908E-03     7.80242E-03
            6006               1     21.7862E-03     22.4275E-03     8.22796E-03     8.25470E-03
            6007               1     21.1021E-03     21.7445E-03     8.24585E-03     8.22508E-03
            6008               1     20.9685E-03     21.5883E-03     8.22284E-03     8.21622E-03
            6009               1     20.5037E-03     21.1174E-03     8.11719E-03     8.08874E-03
            6010               1     20.2677E-03     20.8625E-03     7.97776E-03     7.94637E-03
            6011               1     19.8924E-03     20.5106E-03     7.84577E-03     7.82024E-03
            6012               1     19.6599E-03     20.2261E-03     7.70271E-03     7.64548E-03
            6013               1     19.3516E-03     19.9904E-03     7.58882E-03     7.56606E-03
            6014               1     19.2308E-03     19.7558E-03     7.49276E-03     7.40531E-03
            6015               1     19.0875E-03     19.7541E-03     7.46995E-03     7.44278E-03
            6016               1     19.3223E-03     19.7836E-03     7.49166E-03     7.38488E-03
            6017               1     19.7397E-03     20.3791E-03     7.77772E-03     7.71995E-03
            6018               1     20.8615E-03     21.2595E-03     8.08024E-03     8.03685E-03
            6019               1     23.2671E-03     23.3701E-03     9.43854E-03     9.18736E-03
            6020               1     19.3127E-03     19.9691E-03    -1.33374E-03    -955.459E-06
            6021               1     19.6360E-03     20.1749E-03     1.78319E-03     2.06098E-03
            6022               1     20.4734E-03     21.0995E-03     4.74295E-03     4.93598E-03
            6023               1     20.6969E-03     21.3575E-03     6.10923E-03     6.26708E-03
            6024               1     21.6789E-03     22.1435E-03     7.54340E-03     7.59277E-03
            6025               1     21.1938E-03     21.6986E-03     7.80684E-03     7.82342E-03
            6026               1     21.4437E-03     21.8681E-03     8.14630E-03     8.14668E-03
            6027               1     20.9605E-03     21.3836E-03     8.09155E-03     8.06719E-03
            6028               1     20.8524E-03     21.2557E-03     8.06780E-03     8.04643E-03
            6029               1     20.4351E-03     20.8503E-03     7.94114E-03     7.91505E-03
            6030               1     20.2273E-03     20.6159E-03     7.82931E-03     7.78955E-03
            6031               1     19.8773E-03     20.3145E-03     7.70846E-03     7.68787E-03
            6032               1     19.6915E-03     20.0654E-03     7.60392E-03     7.54381E-03
            6033               1     19.4621E-03     19.9286E-03     7.55601E-03     7.53078E-03
            6034               1     19.4413E-03     19.7926E-03     7.52998E-03     7.45044E-03
            6035               1     19.5871E-03     20.0334E-03     7.73975E-03     7.66621E-03
            6036               1     20.0762E-03     20.3743E-03     7.96615E-03     7.88133E-03
            6037               1     21.3917E-03     21.5539E-03     8.91107E-03     8.67983E-03
            6038               1     23.0225E-03     23.2593E-03     9.91680E-03     9.82187E-03
            6039               1     16.2281E-03     16.6254E-03    -1.67388E-03    -1.45565E-03
            6040               1     16.6413E-03     17.2160E-03     1.52517E-03     1.82538E-03
            6041               1     18.0369E-03     18.6550E-03     3.76645E-03     3.99031E-03
            6042               1     19.7933E-03     20.1874E-03     5.91601E-03     6.00497E-03
            6043               1     20.3431E-03     20.7562E-03     6.71310E-03     6.79185E-03
            6044               1     21.2214E-03     21.4653E-03     7.61840E-03     7.61784E-03
            6045               1     21.0097E-03     21.2531E-03     7.73360E-03     7.72104E-03
            6046               1     21.1684E-03     21.3740E-03     7.95074E-03     7.93372E-03
            6047               1     20.8052E-03     21.0147E-03     7.88379E-03     7.85824E-03
            6048               1     20.7036E-03     20.9006E-03     7.87476E-03     7.84826E-03
            6049               1     20.3609E-03     20.5876E-03     7.78003E-03     7.76236E-03
            6050               1     20.2010E-03     20.3985E-03     7.72088E-03     7.68421E-03
            6051               1     19.9391E-03     20.2005E-03     7.66651E-03     7.65433E-03
            6052               1     19.8210E-03     20.0284E-03     7.63752E-03     7.59217E-03
            6053               1     19.7751E-03     20.0526E-03     7.74902E-03     7.71130E-03
            6054               1     19.8513E-03     20.0754E-03     7.87331E-03     7.82131E-03
            6055               1     20.4603E-03     20.6116E-03     8.49121E-03     8.32859E-03
            6056               1     21.2023E-03     21.3850E-03     9.13999E-03     9.04809E-03
            6057               1     23.2361E-03     23.0363E-03     10.7196E-03     10.3837E-03
            6058               1     12.9694E-03     13.2342E-03    -1.98374E-03    -1.56086E-03
            6059               1     13.8363E-03     14.4778E-03     1.08143E-03     1.26811E-03
            6060               1     16.2768E-03     16.6152E-03     3.73938E-03     3.86205E-03
            6061               1     18.1440E-03     18.5057E-03     5.13073E-03     5.23589E-03
            6062               1     19.8280E-03     19.9243E-03     6.54040E-03     6.51925E-03
            6063               1     20.3541E-03     20.4106E-03     6.94974E-03     6.94047E-03
            6064               1     20.9089E-03     20.9131E-03     7.48793E-03     7.46533E-03
            6065               1     20.7929E-03     20.7892E-03     7.55837E-03     7.53100E-03
            6066               1     20.8825E-03     20.8759E-03     7.72483E-03     7.70491E-03
            6067               1     20.6291E-03     20.6380E-03     7.70524E-03     7.68780E-03
            6068               1     20.5711E-03     20.5716E-03     7.74870E-03     7.72691E-03
            6069               1     20.3404E-03     20.3849E-03     7.73011E-03     7.72698E-03
            6070               1     20.2549E-03     20.2762E-03     7.75698E-03     7.73501E-03
            6071               1     20.1344E-03     20.2203E-03     7.82039E-03     7.82118E-03
            6072               1     20.0801E-03     20.1517E-03     7.91782E-03     7.90100E-03
            6073               1     20.2636E-03     20.3506E-03     8.25721E-03     8.21186E-03
            6074               1     20.3733E-03     20.5257E-03     8.62357E-03     8.59845E-03
            6075               1     21.3804E-03     21.3080E-03     9.68070E-03     9.46577E-03
            6076               1     22.5192E-03     22.5261E-03     10.8445E-03     10.6992E-03
            6077               1     9.42627E-03     10.1875E-03    -2.06621E-03    -2.06170E-03
            6078               1     11.3752E-03     11.5392E-03     1.19360E-03     1.36087E-03
            6079               1     14.3242E-03     14.7626E-03     3.23525E-03     3.32703E-03
            6080               1     17.1572E-03     17.0848E-03     5.10323E-03     4.99638E-03
            6081               1     18.7561E-03     18.5793E-03     5.80714E-03     5.75571E-03
            6082               1     19.7969E-03     19.5856E-03     6.61791E-03     6.57165E-03
            6083               1     20.1845E-03     19.9440E-03     6.89792E-03     6.85764E-03
            6084               1     20.5434E-03     20.3200E-03     7.28045E-03     7.25983E-03
            6085               1     20.5067E-03     20.2880E-03     7.39459E-03     7.37340E-03
            6086               1     20.6151E-03     20.4057E-03     7.58938E-03     7.57539E-03
            6087               1     20.4901E-03     20.3084E-03     7.65605E-03     7.65348E-03
            6088               1     20.5169E-03     20.3302E-03     7.78770E-03     7.77804E-03
            6089               1     20.4263E-03     20.2910E-03     7.87657E-03     7.89230E-03
            6090               1     20.4262E-03     20.2879E-03     8.02388E-03     8.02664E-03
            6091               1     20.4580E-03     20.3751E-03     8.23446E-03     8.25849E-03
            6092               1     20.4277E-03     20.4024E-03     8.50087E-03     8.52593E-03
            6093               1     20.7652E-03     20.7159E-03     9.05841E-03     9.04211E-03
            6094               1     20.7975E-03     20.9496E-03     9.65934E-03     9.68925E-03
            6095               1     22.2784E-03     22.0548E-03     11.2066E-03     10.9489E-03
            6096               1     6.79040E-03     6.13201E-03    -2.19166E-03    -1.77617E-03
            6097               1     8.43447E-03     9.31425E-03     967.702E-06     992.761E-06
            6098               1     13.1049E-03     12.7363E-03     3.51748E-03     3.19621E-03
            6099               1     16.0792E-03     15.5459E-03     4.42578E-03     4.24520E-03
            6100               1     17.6908E-03     17.2040E-03     5.38467E-03     5.29119E-03
            6101               1     18.7906E-03     18.2609E-03     5.90975E-03     5.83199E-03
            6102               1     19.4941E-03     19.0311E-03     6.49277E-03     6.46581E-03
            6103               1     19.8311E-03     19.3680E-03     6.79798E-03     6.76834E-03
            6104               1     20.1733E-03     19.7429E-03     7.17389E-03     7.16338E-03
            6105               1     20.2454E-03     19.8324E-03     7.37177E-03     7.36529E-03
            6106               1     20.4373E-03     20.0348E-03     7.64199E-03     7.63678E-03
            6107               1     20.4531E-03     20.0863E-03     7.81162E-03     7.82522E-03
            6108               1     20.5857E-03     20.2199E-03     8.05736E-03     8.06233E-03
            6109               1     20.6331E-03     20.3236E-03     8.26755E-03     8.30685E-03
            6110               1     20.7202E-03     20.4308E-03     8.56735E-03     8.59653E-03
            6111               1     20.8458E-03     20.6273E-03     8.90968E-03     8.98382E-03
            6112               1     20.8178E-03     20.7059E-03     9.36370E-03     9.43611E-03
            6113               1     21.1564E-03     21.0931E-03     10.0415E-03     10.1323E-03
            6114               1     21.0216E-03     21.2362E-03     10.7973E-03     10.9265E-03
            6115               1     3.95346E-03     5.00840E-03    -2.27351E-03    -2.59622E-03
            6116               1     7.21591E-03     6.01124E-03     1.83200E-03     1.03718E-03
            6117               1     12.1557E-03     10.9827E-03     2.84120E-03     2.43480E-03
            6118               1     14.4541E-03     13.5326E-03     3.80845E-03     3.65611E-03
            6119               1     16.4121E-03     15.5162E-03     4.61330E-03     4.48491E-03
            6120               1     17.5916E-03     16.8443E-03     5.37069E-03     5.33639E-03
            6121               1     18.4532E-03     17.7236E-03     5.91585E-03     5.87731E-03
            6122               1     19.1286E-03     18.4636E-03     6.48639E-03     6.47800E-03
            6123               1     19.5082E-03     18.8594E-03     6.85389E-03     6.84392E-03
            6124               1     19.9222E-03     19.3025E-03     7.28103E-03     7.27800E-03
            6125               1     20.1127E-03     19.5155E-03     7.56305E-03     7.56826E-03
            6126               1     20.4022E-03     19.8184E-03     7.92299E-03     7.92496E-03
            6127               1     20.5468E-03     19.9983E-03     8.19837E-03     8.22236E-03
            6128               1     20.7857E-03     20.2480E-03     8.57388E-03     8.59002E-03
            6129               1     20.9409E-03     20.4609E-03     8.90889E-03     8.96767E-03
            6130               1     21.1371E-03     20.6882E-03     9.38558E-03     9.43397E-03
            6131               1     21.2799E-03     20.9460E-03     9.82712E-03     9.96025E-03
            6132               1     21.3384E-03     21.1141E-03     10.4806E-03     10.6012E-03
            6133               1     21.5032E-03     21.5213E-03     11.1142E-03     11.3682E-03
            6134               1     2.49733E-03     7.35999E-03    -768.954E-06    -2.17424E-03
            6135               1     6.41482E-03     4.03490E-03     816.046E-06     326.608E-06
            6136               1     9.79978E-03     8.14686E-03     1.72097E-03     1.60154E-03
            6137               1     12.7421E-03     11.3957E-03     2.95364E-03     2.83865E-03
            6138               1     14.6884E-03     13.6141E-03     3.93638E-03     3.91437E-03
            6139               1     16.2265E-03     15.2179E-03     4.78033E-03     4.75079E-03
            6140               1     17.4135E-03     16.5060E-03     5.57194E-03     5.56761E-03
            6141               1     18.2238E-03     17.3385E-03     6.13721E-03     6.12987E-03
            6142               1     18.9526E-03     18.1162E-03     6.73243E-03     6.73133E-03
            6143               1     19.3900E-03     18.5687E-03     7.13631E-03     7.13617E-03
            6144               1     19.8607E-03     19.0713E-03     7.60697E-03     7.60690E-03
            6145               1     20.1391E-03     19.3648E-03     7.95561E-03     7.96152E-03
            6146               1     20.4949E-03     19.7465E-03     8.39758E-03     8.40051E-03
            6147               1     20.7352E-03     20.0051E-03     8.77921E-03     8.79652E-03
            6148               1     21.0775E-03     20.3707E-03     9.29513E-03     9.30504E-03
            6149               1     21.3204E-03     20.6517E-03     9.76899E-03     9.81515E-03
            6150               1     21.7266E-03     21.0726E-03     10.4635E-03     10.4861E-03
            6151               1     21.8893E-03     21.3745E-03     11.0087E-03     11.1343E-03
            6152               1     22.4748E-03     21.9705E-03     11.9940E-03     12.0470E-03
            6153               1     16.0266E-03     18.3325E-03     4.34931E-03     3.98049E-03
            6154               1     13.8264E-03     14.4914E-03     7.68987E-03     7.58102E-03
            6155               1     13.3160E-03     14.0951E-03     7.53321E-03     7.63659E-03
            6156               1     14.8912E-03     15.3031E-03     8.52863E-03     8.48304E-03
            6157               1     14.2839E-03     14.8397E-03     8.14476E-03     8.15173E-03
            6158               1     14.5983E-03     15.1067E-03     8.33793E-03     8.33150E-03
            6159               1     14.3296E-03     14.8695E-03     8.17112E-03     8.17016E-03
            6160               1     14.4269E-03     14.9476E-03     8.23289E-03     8.22818E-03
            6161               1     14.3324E-03     14.8619E-03     8.17476E-03     8.17246E-03
            6162               1     14.3609E-03     14.8822E-03     8.19390E-03     8.19065E-03
            6163               1     14.3340E-03     14.8534E-03     8.17719E-03     8.17344E-03
            6164               1     14.3266E-03     14.8454E-03     8.17472E-03     8.17296E-03
            6165               1     14.3358E-03     14.8448E-03     8.17928E-03     8.17372E-03
            6166               1     14.2859E-03     14.8026E-03     8.15279E-03     8.15334E-03
            6167               1     14.3395E-03     14.8367E-03     8.18217E-03     8.17392E-03
            6168               1     14.1923E-03     14.7091E-03     8.10235E-03     8.10717E-03
            6169               1     14.3666E-03     14.8277E-03     8.19936E-03     8.17754E-03
            6170               1     13.9999E-03     14.5804E-03     8.00306E-03     8.05139E-03
            6171               1     14.9509E-03     15.2034E-03     8.52383E-03     8.39677E-03
            6172               1     8.31687E-03     7.86305E-03     1.48092E-03     2.01104E-03
            6173               1     13.9913E-03     14.4581E-03     7.61602E-03     7.67916E-03
            6174               1     15.3473E-03     15.3611E-03     8.76506E-03     8.67379E-03
            6175               1     14.7955E-03     15.0094E-03     8.32451E-03     8.34440E-03
            6176               1     14.7159E-03     14.8787E-03     8.34674E-03     8.33426E-03
            6177               1     14.5305E-03     14.7166E-03     8.19386E-03     8.18713E-03
            6178               1     14.5438E-03     14.7167E-03     8.22748E-03     8.21909E-03
            6179               1     14.4983E-03     14.6799E-03     8.18711E-03     8.18092E-03
            6180               1     14.5063E-03     14.6806E-03     8.20219E-03     8.19439E-03
            6181               1     14.4926E-03     14.6677E-03     8.18959E-03     8.18180E-03
            6182               1     14.4874E-03     14.6636E-03     8.19167E-03     8.18586E-03
            6183               1     14.4906E-03     14.6590E-03     8.19135E-03     8.18128E-03
            6184               1     14.4697E-03     14.6483E-03     8.18369E-03     8.18053E-03
            6185               1     14.4930E-03     14.6542E-03     8.19370E-03     8.18075E-03
            6186               1     14.4394E-03     14.6200E-03     8.17045E-03     8.16989E-03
            6187               1     14.4936E-03     14.6486E-03     8.19173E-03     8.17672E-03
            6188               1     14.3201E-03     14.5145E-03     8.11312E-03     8.11906E-03
            6189               1     14.4186E-03     14.4982E-03     8.13684E-03     8.08945E-03
            6190               1     13.8669E-03     14.1936E-03     7.88019E-03     7.95602E-03
            6191               1     2.88209E-03     3.27390E-03     1.40222E-03     1.83242E-03
            6192               1     12.4712E-03     12.4857E-03     7.00869E-03     7.06719E-03
            6193               1     15.5970E-03     15.2038E-03     8.56726E-03     8.47808E-03
            6194               1     14.5876E-03     14.4889E-03     8.17376E-03     8.19265E-03
            6195               1     14.8582E-03     14.6695E-03     8.25562E-03     8.24894E-03
            6196               1     14.5684E-03     14.3955E-03     8.14584E-03     8.13471E-03
            6197               1     14.6991E-03     14.5289E-03     8.19632E-03     8.19129E-03
            6198               1     14.6243E-03     14.4550E-03     8.17239E-03     8.16406E-03
            6199               1     14.6765E-03     14.5070E-03     8.19434E-03     8.18714E-03
            6200               1     14.6490E-03     14.4835E-03     8.18687E-03     8.18010E-03
            6201               1     14.6670E-03     14.4979E-03     8.19463E-03     8.18594E-03
            6202               1     14.6553E-03     14.4948E-03     8.19345E-03     8.18839E-03
            6203               1     14.6625E-03     14.4920E-03     8.19528E-03     8.18461E-03
            6204               1     14.6589E-03     14.5053E-03     8.20057E-03     8.19790E-03
            6205               1     14.6621E-03     14.4872E-03     8.19540E-03     8.18152E-03
            6206               1     14.6641E-03     14.5209E-03     8.21201E-03     8.21243E-03
            6207               1     14.6300E-03     14.4530E-03     8.16480E-03     8.15542E-03
            6208               1     14.6183E-03     14.4459E-03     8.20123E-03     8.16911E-03
            6209               1     14.4118E-03     14.3421E-03     7.98088E-03     8.06334E-03
            6210               1     8.90082E-03     10.8996E-03     3.19273E-03     2.74852E-03
            6211               1     11.8041E-03     11.3524E-03     6.63232E-03     6.51273E-03
            6212               1     12.6547E-03     12.3169E-03     6.90706E-03     7.00950E-03
            6213               1     14.9266E-03     14.3040E-03     8.16934E-03     8.12939E-03
            6214               1     14.4232E-03     13.9182E-03     7.92553E-03     7.93111E-03
            6215               1     14.9303E-03     14.4075E-03     8.21092E-03     8.20636E-03
            6216               1     14.7142E-03     14.2055E-03     8.10021E-03     8.09790E-03
            6217               1     14.8829E-03     14.3723E-03     8.19459E-03     8.19058E-03
            6218               1     14.8089E-03     14.3060E-03     8.15786E-03     8.15532E-03
            6219               1     14.8651E-03     14.3627E-03     8.19043E-03     8.18687E-03
            6220               1     14.8439E-03     14.3471E-03     8.18252E-03     8.17966E-03
            6221               1     14.8535E-03     14.3585E-03     8.18903E-03     8.18573E-03
            6222               1     14.8635E-03     14.3736E-03     8.19978E-03     8.19654E-03
            6223               1     14.8413E-03     14.3539E-03     8.18663E-03     8.18394E-03
            6224               1     14.8985E-03     14.4164E-03     8.22805E-03     8.22382E-03
            6225               1     14.8223E-03     14.3430E-03     8.17745E-03     8.17715E-03
            6226               1     15.0203E-03     14.5336E-03     8.30959E-03     8.29406E-03
            6227               1     14.8505E-03     14.4370E-03     8.18195E-03     8.22792E-03
            6228               1     15.7903E-03     15.1933E-03     8.80573E-03     8.68894E-03
            6509               1     1.43259E-03     1.67045E-03    -147.210E-06    -114.078E-06
            6510               1     912.440E-06     1.04735E-03    -299.046E-06    -263.679E-06
            6511               1     1.25179E-03     1.14685E-03    -7.36958E-06    -33.7175E-06
            6512               1     1.01520E-03     1.04498E-03    -293.138E-06    -282.263E-06
            6513               1     865.551E-06     938.674E-06     67.2096E-06     52.8121E-06
            6514               1     812.097E-06     842.881E-06    -163.254E-06    -208.387E-06
            6515               1     632.680E-06     615.038E-06     109.486E-06     88.9136E-06
            6516               1     624.575E-06     652.214E-06    -148.075E-06    -161.758E-06
            6517               1     370.590E-06     334.984E-06     116.626E-06     95.2713E-06
            6518               1     435.798E-06     486.435E-06    -121.211E-06    -165.009E-06
            6519               1     178.435E-06     155.774E-06     94.5184E-06     62.0908E-06
            6520               1     421.049E-06     398.324E-06    -201.968E-06    -191.817E-06
            6521               1     294.960E-06     503.646E-06     3.92666E-06     17.6286E-06
            6522               1     417.259E-06     303.421E-06    -178.282E-06    -152.636E-06
            6523               1     52.6090E-03     55.6802E-03     175.919E-06     1.01355E-03
            6524               1     63.5955E-03     69.0784E-03     683.593E-06     2.14250E-03
            6525               1     57.1409E-03     58.9947E-03     1.79521E-03     2.32411E-03
            6526               1     64.7944E-03     62.5799E-03     5.55789E-03     5.68068E-03
            6527               1     57.6357E-03     58.4006E-03     6.18317E-03     5.84518E-03
            6528               1     60.3167E-03     63.6377E-03     9.12256E-03     9.49949E-03
            6529               1     55.8002E-03     57.8601E-03     8.47891E-03     8.65869E-03
            6530               1     60.0755E-03     59.9985E-03     12.3336E-03     12.3490E-03
            6531               1     55.3372E-03     56.0159E-03     11.1290E-03     10.6467E-03
            6532               1     56.7899E-03     58.2376E-03     14.3205E-03     14.2876E-03
            6533               1     53.1446E-03     54.4831E-03     12.7406E-03     12.5086E-03
            6534               1     55.7627E-03     55.8502E-03     16.3298E-03     15.8724E-03
            6535               1     52.0163E-03     52.4958E-03     14.4627E-03     13.7961E-03
            6536               1     53.4200E-03     53.8455E-03     18.0887E-03     17.6162E-03
            6537               1     49.5344E-03     50.4712E-03     15.7555E-03     15.3731E-03
            6538               1     52.1241E-03     51.6348E-03     19.9424E-03     18.9152E-03
            6539               1     47.2268E-03     47.4183E-03     15.8138E-03     16.0583E-03
            6540               1     49.4952E-03     49.1292E-03     21.7062E-03     20.7557E-03
            6541               1     48.1480E-03     46.1764E-03     17.4147E-03     17.6847E-03
            6542               1     45.3067E-03     43.3527E-03     20.8240E-03     20.7593E-03
            6543               1     34.8569E-03     37.6741E-03     3.78410E-03     4.42767E-03
            6544               1     44.1877E-03     48.9047E-03     4.53026E-03     5.63219E-03
            6545               1     38.2845E-03     39.8234E-03     4.81287E-03     5.25451E-03
            6546               1     45.6102E-03     43.9272E-03     8.36841E-03     8.35445E-03
            6547               1     39.2916E-03     39.5776E-03     8.10921E-03     7.82467E-03
            6548               1     42.3792E-03     44.5814E-03     10.8071E-03     10.9560E-03
            6549               1     37.9742E-03     39.2687E-03     9.68208E-03     9.73177E-03
            6550               1     42.4256E-03     42.2388E-03     13.0038E-03     12.9583E-03
            6551               1     37.8852E-03     38.0367E-03     11.4646E-03     11.0813E-03
            6552               1     40.1151E-03     40.9394E-03     14.2844E-03     14.2007E-03
            6553               1     36.3336E-03     37.0015E-03     12.4934E-03     12.2583E-03
            6554               1     39.5518E-03     39.3115E-03     15.5547E-03     15.2052E-03
            6555               1     35.5788E-03     35.5244E-03     13.4547E-03     12.9817E-03
            6556               1     37.9950E-03     38.1103E-03     16.6497E-03     16.2964E-03
            6557               1     33.8576E-03     34.2061E-03     14.1519E-03     13.8281E-03
            6558               1     37.2695E-03     36.4004E-03     17.6361E-03     16.9037E-03
            6559               1     31.6872E-03     31.8422E-03     13.6017E-03     13.8788E-03
            6560               1     35.6593E-03     35.2117E-03     18.5373E-03     17.8390E-03
            6561               1     32.9717E-03     31.7883E-03     14.6113E-03     14.9227E-03
            6562               1     32.1020E-03     31.3412E-03     17.1612E-03     17.3394E-03
            6563               1     22.5468E-03     24.9602E-03     7.21585E-03     7.70497E-03
            6564               1     30.2841E-03     34.1505E-03     8.09967E-03     8.90035E-03
            6565               1     24.8236E-03     26.0431E-03     7.68277E-03     8.08632E-03
            6566               1     32.3443E-03     31.0811E-03     11.0425E-03     10.8908E-03
            6567               1     26.5800E-03     26.4207E-03     10.0687E-03     9.84421E-03
            6568               1     30.5490E-03     31.5682E-03     12.4872E-03     12.4434E-03
            6569               1     25.9827E-03     26.4953E-03     10.9388E-03     10.9410E-03
            6570               1     30.7707E-03     30.5541E-03     13.7641E-03     13.6916E-03
            6571               1     26.2779E-03     26.0547E-03     12.0373E-03     11.7695E-03
            6572               1     29.6398E-03     29.8355E-03     14.3833E-03     14.2881E-03
            6573               1     25.5073E-03     25.5257E-03     12.4244E-03     12.2725E-03
            6574               1     29.3076E-03     29.1405E-03     15.0012E-03     14.8463E-03
            6575               1     25.2723E-03     24.9511E-03     12.9778E-03     12.6520E-03
            6576               1     28.6897E-03     28.4362E-03     15.3718E-03     15.1709E-03
            6577               1     24.3634E-03     24.1221E-03     12.9961E-03     12.7907E-03
            6578               1     28.3053E-03     27.9757E-03     15.7452E-03     15.4653E-03
            6579               1     23.6716E-03     23.3215E-03     13.1007E-03     12.7913E-03
            6580               1     27.8897E-03     27.1622E-03     15.8619E-03     15.4395E-03
            6581               1     21.2818E-03     21.7449E-03     11.9274E-03     12.2729E-03
            6582               1     27.5368E-03     26.7790E-03     15.8758E-03     15.3846E-03
            6583               1     22.1202E-03     22.1969E-03     12.3072E-03     12.6388E-03
            6584               1     24.4988E-03     25.6153E-03     14.0457E-03     14.4431E-03
            6585               1     14.9199E-03     15.7049E-03     8.45395E-03     8.56875E-03
            6586               1     18.8047E-03     20.7022E-03     9.88917E-03     10.3006E-03
            6587               1     15.0911E-03     15.2669E-03     8.47404E-03     8.42561E-03
            6588               1     20.9295E-03     19.8254E-03     11.5968E-03     11.0884E-03
            6589               1     15.3867E-03     15.1281E-03     8.70580E-03     8.62459E-03
            6590               1     20.5437E-03     19.7435E-03     11.8486E-03     11.3512E-03
            6591               1     15.8536E-03     15.7458E-03     8.94202E-03     9.05215E-03
            6592               1     18.4523E-03     19.3930E-03     10.6083E-03     10.9452E-03
            6593               1     1.23894E-03     1.20209E-03     711.803E-06     686.239E-06
            6594               1     1.28653E-03     1.25004E-03     735.897E-06     718.112E-06
            6595               1     1.24371E-03     1.25393E-03     716.218E-06     720.600E-06
            6596               1     1.26168E-03     1.24251E-03     726.900E-06     715.819E-06
            6597               1     1.25786E-03     1.25093E-03     725.441E-06     721.615E-06
            6598               1     1.26830E-03     1.24319E-03     732.233E-06     717.531E-06
            6599               1     1.24858E-03     1.22942E-03     720.807E-06     709.421E-06
            6600               1     1.18636E-03     1.20872E-03     652.081E-06     627.435E-06
            6601               1     1.26840E-03     1.19241E-03     675.828E-06     663.103E-06
            6602               1     1.17967E-03     1.22014E-03     657.891E-06     667.965E-06
            6603               1     1.16271E-03     1.13355E-03     657.480E-06     640.172E-06
            6604               1     1.15911E-03     1.14714E-03     663.121E-06     658.353E-06
            6605               1     1.15206E-03     1.13299E-03     664.916E-06     651.409E-06
            6606               1     1.13468E-03     1.11702E-03     654.740E-06     643.428E-06
            6607               1     1.10270E-03     1.23295E-03     542.909E-06     507.299E-06
            6608               1     1.28880E-03     1.07283E-03     569.354E-06     535.191E-06
            6609               1     1.02414E-03     1.08245E-03     526.528E-06     531.082E-06
            6610               1     998.324E-06     1.00798E-03     534.145E-06     543.385E-06
            6611               1     936.796E-06     940.544E-06     519.243E-06     528.113E-06
            6612               1     932.091E-06     921.940E-06     537.876E-06     525.500E-06
            6613               1     915.632E-06     904.806E-06     527.995E-06     515.814E-06
            6614               1     997.554E-06     1.33600E-03     335.234E-06     284.437E-06
            6615               1     1.24807E-03     866.272E-06     353.386E-06     327.526E-06
            6616               1     858.938E-06     1.00835E-03     351.943E-06     364.092E-06
            6617               1     758.699E-06     727.892E-06     349.511E-06     332.374E-06
            6618               1     700.883E-06     685.715E-06     362.898E-06     373.746E-06
            6619               1     577.150E-06     640.301E-06     329.888E-06     349.913E-06
            6620               1     575.773E-06     606.416E-06     331.617E-06     333.194E-06
            6621               1     989.906E-06     1.50250E-03     38.2761E-06     44.2519E-06
            6622               1     1.45516E-03     970.316E-06     81.2825E-06     88.1214E-06
            6623               1     706.863E-06     1.00990E-03     61.2882E-06     48.7698E-06
            6624               1     575.676E-06     532.314E-06     115.324E-06     73.2964E-06
            6625               1     341.934E-06     260.481E-06     87.8200E-06     82.0156E-06
            6626               1     306.122E-06     266.551E-06     155.407E-06     147.058E-06
            6627               1     255.267E-06     360.992E-06     146.615E-06     146.760E-06
            6628               1     1.65212E-03     1.99802E-03    -374.087E-06    -312.834E-06
            6629               1     1.66124E-03     1.28984E-03    -372.776E-06    -344.903E-06
            6630               1     936.693E-06     1.16844E-03    -244.374E-06    -302.170E-06
            6631               1     782.620E-06     711.563E-06    -285.434E-06    -255.591E-06
            6632               1     475.249E-06     494.066E-06    -218.115E-06    -260.827E-06
            6633               1     425.994E-06     410.666E-06    -207.327E-06    -225.525E-06
            6634               1     480.162E-06     687.142E-06    -134.667E-06    -140.514E-06


  Minimum                            178.435E-06     155.774E-06    -48.4581E-03    -47.0573E-03
      At Element                            6519            6519             324             324
          Int Pt                               1               1               1               1

  Maximum                            176.085E-03     184.287E-03     83.0117E-03     83.3007E-03
      At Element                            5370            5369            5181            5181
          Int Pt                               1               1               1               1

           Total                         195.510         197.499         15.3365         15.7870


Field Output reported at integration points for region: B737-1.Region_2

   Element Label             Int         S.Mises         S.Mises           S.S12           S.S12
                              Pt          @Loc 1          @Loc 2          @Loc 1          @Loc 2
-------------------------------------------------------------------------------------------------
            1732               1     12.4162E-03     12.4037E-03    -6.47134E-03    -6.84789E-03
            1733               1     15.0294E-03     15.3551E-03    -8.65376E-03    -8.81696E-03
            1734               1     16.2372E-03     16.1694E-03    -9.34927E-03    -9.25830E-03
            1735               1     17.1249E-03     17.2083E-03    -9.86534E-03    -9.85317E-03
            1736               1     17.3828E-03     17.2199E-03    -10.0313E-03    -9.88428E-03
            1737               1     16.6518E-03     16.6554E-03    -9.60490E-03    -9.53912E-03
            1738               1     16.2996E-03     16.0544E-03    -9.39674E-03    -9.10352E-03
            1739               1     14.3861E-03     15.0916E-03    -7.59727E-03    -7.03368E-03
            1740               1     10.5523E-03     10.7008E-03    -6.09117E-03    -6.17031E-03
            1741               1     15.8099E-03     15.9628E-03    -9.07050E-03    -9.15330E-03
            1742               1     17.2450E-03     17.3468E-03    -9.84598E-03    -9.84190E-03
            1743               1     18.0876E-03     17.7734E-03    -10.4055E-03    -10.1786E-03
            1744               1     18.0837E-03     17.9466E-03    -10.4276E-03    -10.3128E-03
            1745               1     17.7007E-03     17.2210E-03    -10.2108E-03    -9.91700E-03
            1746               1     16.8440E-03     16.2738E-03    -9.68666E-03    -9.29880E-03
            1747               1     11.5463E-03     11.8805E-03    -6.28568E-03    -6.67699E-03
            1748               1     10.5624E-03     10.6066E-03    -5.82134E-03    -5.77896E-03
            1749               1     15.4294E-03     15.1409E-03    -8.70581E-03    -8.53386E-03
            1750               1     18.2704E-03     18.0629E-03    -10.4060E-03    -10.2531E-03
            1751               1     18.9039E-03     18.7971E-03    -10.8390E-03    -10.7439E-03
            1752               1     18.9402E-03     18.6073E-03    -10.9272E-03    -10.7232E-03
            1753               1     18.3090E-03     18.0946E-03    -10.5667E-03    -10.4354E-03
            1754               1     15.0852E-03     15.4602E-03    -8.70636E-03    -8.92435E-03
            1755               1     10.2568E-03     10.8631E-03    -5.89601E-03    -6.27019E-03
            1756               1     12.2189E-03     11.8272E-03    -5.83761E-03    -5.69411E-03
            1757               1     15.9103E-03     15.7091E-03    -8.66607E-03    -8.47897E-03
            1758               1     18.4576E-03     18.1795E-03    -10.3975E-03    -10.2217E-03
            1759               1     19.5633E-03     19.3514E-03    -11.2086E-03    -11.0727E-03
            1760               1     19.4500E-03     19.3906E-03    -11.2160E-03    -11.1785E-03
            1761               1     17.8557E-03     18.0931E-03    -10.3042E-03    -10.4362E-03
            1762               1     15.0863E-03     15.4441E-03    -8.61584E-03    -8.84012E-03
            1763               1     10.8578E-03     11.3343E-03    -5.95045E-03    -6.17763E-03
            1764               1     14.1602E-03     13.9891E-03    -5.98308E-03    -5.74019E-03
            1765               1     16.8774E-03     16.5086E-03    -8.70092E-03    -8.51840E-03
            1766               1     18.7030E-03     18.4533E-03    -10.3875E-03    -10.2092E-03
            1767               1     19.7586E-03     19.7411E-03    -11.2712E-03    -11.2648E-03
            1768               1     19.4126E-03     19.5594E-03    -11.2025E-03    -11.2907E-03
            1769               1     17.8851E-03     18.1432E-03    -10.2778E-03    -10.4257E-03
            1770               1     15.3808E-03     15.8765E-03    -8.58883E-03    -8.82305E-03
            1771               1     12.3109E-03     12.3599E-03    -6.00635E-03    -6.16057E-03
            1772               1     16.7778E-03     16.0904E-03    -5.92415E-03    -5.69524E-03
            1773               1     18.0414E-03     17.7320E-03    -8.83599E-03    -8.51321E-03
            1774               1     19.4141E-03     19.5062E-03    -10.5901E-03    -10.6677E-03
            1775               1     19.0177E-03     19.2834E-03    -10.8430E-03    -11.0368E-03
            1776               1     18.8666E-03     18.9915E-03    -10.8814E-03    -10.9620E-03
            1777               1     18.3753E-03     18.6409E-03    -10.5056E-03    -10.6080E-03
            1778               1     16.2254E-03     16.3874E-03    -8.63899E-03    -8.76554E-03
            1779               1     13.7356E-03     14.3541E-03    -5.87213E-03    -6.06287E-03
            1780               1     20.2336E-03     20.5288E-03    -6.69813E-03    -6.36018E-03
            1781               1     20.4431E-03     20.5860E-03    -9.68307E-03    -9.92698E-03
            1782               1     18.4426E-03     18.7023E-03    -10.0093E-03    -10.3509E-03
            1783               1     18.1694E-03     18.1832E-03    -10.2718E-03    -10.3714E-03
            1784               1     17.6251E-03     17.9914E-03    -10.1730E-03    -10.3827E-03
            1785               1     17.4464E-03     17.6220E-03    -9.99395E-03    -10.0228E-03
            1786               1     18.3776E-03     18.4276E-03    -9.67753E-03    -9.46193E-03
            1787               1     17.5510E-03     17.0785E-03    -6.43006E-03    -6.46227E-03
            1788               1     26.2047E-03     24.0184E-03    -8.58144E-03    -8.82395E-03
            1789               1     19.8767E-03     19.2463E-03    -9.43671E-03    -9.84460E-03
            1790               1     17.3802E-03     16.8500E-03    -9.14200E-03    -9.19356E-03
            1791               1     16.5074E-03     16.5219E-03    -9.30668E-03    -9.45993E-03
            1792               1     16.0898E-03     16.1015E-03    -9.27943E-03    -9.29216E-03
            1793               1     15.7309E-03     16.0724E-03    -8.94065E-03    -9.01123E-03
            1794               1     17.2172E-03     17.5437E-03    -9.21785E-03    -9.12877E-03
            1795               1     21.2081E-03     21.9784E-03    -8.38283E-03    -7.74989E-03
            1796               1     13.7135E-03     13.9818E-03    -3.00008E-03    -3.46633E-03
            1797               1     16.4907E-03     16.0552E-03    -6.15342E-03    -6.04846E-03
            1798               1     16.5162E-03     16.1973E-03    -7.74175E-03    -7.50646E-03
            1799               1     15.9891E-03     15.8972E-03    -8.54438E-03    -8.33502E-03
            1800               1     15.6195E-03     15.2797E-03    -8.93563E-03    -8.58722E-03
            1801               1     14.8488E-03     14.3457E-03    -8.51980E-03    -8.27132E-03
            1802               1     14.7136E-03     13.0273E-03    -7.98755E-03    -7.41643E-03
            1803               1     10.9059E-03     8.84361E-03    -5.58360E-03    -5.04662E-03
            1804               1     18.5736E-03     18.9058E-03    -4.29332E-03    -4.82401E-03
            1805               1     18.5692E-03     18.9362E-03    -6.66791E-03    -6.58823E-03
            1806               1     17.4802E-03     17.2515E-03    -7.78956E-03    -7.40026E-03
            1807               1     16.3742E-03     15.6867E-03    -8.58724E-03    -7.97137E-03
            1808               1     15.3826E-03     14.5789E-03    -8.75816E-03    -8.20524E-03
            1809               1     15.0860E-03     13.7409E-03    -8.63309E-03    -7.89013E-03
            1810               1     14.7001E-03     13.5446E-03    -8.03714E-03    -7.37394E-03
            1811               1     10.8061E-03     12.6773E-03    -5.06773E-03    -5.81834E-03
            1812               1     21.1327E-03     21.3219E-03    -4.57244E-03    -4.78003E-03
            1813               1     20.0263E-03     20.2843E-03    -6.91138E-03    -6.94164E-03
            1814               1     18.7528E-03     18.5700E-03    -8.23294E-03    -7.81653E-03
            1815               1     16.9854E-03     16.3630E-03    -8.78133E-03    -8.27353E-03
            1816               1     15.7717E-03     14.7543E-03    -8.96264E-03    -8.33076E-03
            1817               1     15.2377E-03     14.3721E-03    -8.73918E-03    -8.21880E-03
            1818               1     13.6011E-03     14.2910E-03    -7.24952E-03    -7.48438E-03
            1819               1     13.2942E-03     13.3350E-03    -4.94083E-03    -5.50684E-03
            1820               1     23.9923E-03     23.6566E-03    -4.59753E-03    -4.66542E-03
            1821               1     21.4290E-03     21.4592E-03    -6.94628E-03    -6.82622E-03
            1822               1     19.5058E-03     19.3182E-03    -8.37880E-03    -8.12829E-03
            1823               1     17.6532E-03     17.1388E-03    -9.04818E-03    -8.63881E-03
            1824               1     16.1526E-03     15.5019E-03    -9.16879E-03    -8.79799E-03
            1825               1     14.7367E-03     14.7251E-03    -8.43391E-03    -8.39561E-03
            1826               1     14.3283E-03     14.5089E-03    -7.15470E-03    -7.29877E-03
            1827               1     14.9350E-03     15.3799E-03    -5.05283E-03    -5.31767E-03
            1828               1     26.2846E-03     26.0487E-03    -4.78107E-03    -4.67305E-03
            1829               1     23.0374E-03     22.7623E-03    -6.92855E-03    -6.78411E-03
            1830               1     20.3325E-03     20.1541E-03    -8.44670E-03    -8.21499E-03
            1831               1     18.0658E-03     17.7957E-03    -9.20614E-03    -9.02845E-03
            1832               1     16.0997E-03     15.9374E-03    -9.13964E-03    -9.06254E-03
            1833               1     15.0278E-03     15.1175E-03    -8.49859E-03    -8.54512E-03
            1834               1     14.8792E-03     15.3373E-03    -7.03564E-03    -7.22938E-03
            1835               1     17.0114E-03     16.8693E-03    -5.09992E-03    -5.28810E-03
            1836               1     28.9444E-03     28.2613E-03    -4.70482E-03    -4.51976E-03
            1837               1     24.6342E-03     24.4828E-03    -7.05255E-03    -6.82160E-03
            1838               1     21.2267E-03     21.0853E-03    -8.52972E-03    -8.43311E-03
            1839               1     18.2278E-03     18.2093E-03    -9.18851E-03    -9.17732E-03
            1840               1     16.1845E-03     16.3570E-03    -9.22393E-03    -9.33640E-03
            1841               1     15.1375E-03     15.5597E-03    -8.45386E-03    -8.65683E-03
            1842               1     16.1307E-03     16.2836E-03    -7.11769E-03    -7.26154E-03
            1843               1     18.8452E-03     18.9119E-03    -5.02609E-03    -5.11146E-03
            1844               1     31.2156E-03     30.9417E-03    -5.07686E-03    -4.71928E-03
            1845               1     26.3475E-03     25.9754E-03    -7.13546E-03    -6.94352E-03
            1846               1     21.8259E-03     21.8765E-03    -8.48547E-03    -8.39315E-03
            1847               1     18.6374E-03     19.0691E-03    -9.28680E-03    -9.56928E-03
            1848               1     16.0596E-03     16.5947E-03    -9.19251E-03    -9.53276E-03
            1849               1     15.3695E-03     15.7899E-03    -8.41127E-03    -8.62791E-03
            1850               1     17.1050E-03     17.5094E-03    -7.10220E-03    -7.23875E-03
            1851               1     21.0717E-03     20.7620E-03    -5.23224E-03    -5.13431E-03
            1852               1     33.8407E-03     32.8818E-03    -4.97370E-03    -4.54909E-03
            1853               1     27.8753E-03     28.0084E-03    -7.36487E-03    -6.90267E-03
            1854               1     23.0870E-03     23.6757E-03    -8.85741E-03    -9.24571E-03
            1855               1     17.8299E-03     18.4752E-03    -8.88552E-03    -9.46126E-03
            1856               1     15.5541E-03     16.2524E-03    -8.87271E-03    -9.32050E-03
            1857               1     16.0345E-03     16.8427E-03    -8.61842E-03    -8.94845E-03
            1858               1     18.4088E-03     18.5265E-03    -7.10222E-03    -7.04853E-03
            1859               1     22.6988E-03     23.0107E-03    -4.92814E-03    -4.85209E-03
            1860               1     37.0673E-03     37.6668E-03    -6.23529E-03    -5.45034E-03
            1861               1     30.5440E-03     30.8367E-03    -8.66902E-03    -9.11525E-03
            1862               1     21.8860E-03     21.9755E-03    -8.37295E-03    -9.12629E-03
            1863               1     17.1445E-03     17.4021E-03    -8.21829E-03    -8.71721E-03
            1864               1     14.0289E-03     14.9215E-03    -8.03811E-03    -8.60251E-03
            1865               1     14.7595E-03     15.5828E-03    -8.00270E-03    -8.35120E-03
            1866               1     20.3925E-03     21.0345E-03    -8.08260E-03    -8.00077E-03
            1867               1     26.3356E-03     25.8586E-03    -5.56709E-03    -5.15263E-03
            1868               1     42.8528E-03     38.7791E-03    -9.75250E-03    -9.83189E-03
            1869               1     28.9420E-03     26.5494E-03    -8.69311E-03    -9.37920E-03
            1870               1     20.7605E-03     19.1539E-03    -7.15706E-03    -7.38532E-03
            1871               1     14.8326E-03     14.3876E-03    -6.86084E-03    -7.20126E-03
            1872               1     11.6546E-03     11.8498E-03    -6.62487E-03    -6.81354E-03
            1873               1     12.5548E-03     13.0709E-03    -6.51562E-03    -6.71853E-03
            1874               1     18.3182E-03     18.4901E-03    -7.46268E-03    -7.56178E-03
            1875               1     29.0494E-03     29.1339E-03    -8.08340E-03    -7.37214E-03
            1876               1     32.4051E-03     30.6842E-03     731.439E-06     166.583E-06
            1877               1     26.7717E-03     24.8307E-03    -3.56955E-03    -3.17169E-03
            1878               1     21.9556E-03     20.9367E-03    -6.16540E-03    -5.78035E-03
            1879               1     17.1831E-03     16.8367E-03    -7.29178E-03    -6.89068E-03
            1880               1     14.3585E-03     14.0068E-03    -7.95831E-03    -7.42139E-03
            1881               1     13.4487E-03     12.2996E-03    -7.48712E-03    -7.08135E-03
            1882               1     15.8686E-03     12.0865E-03    -6.65278E-03    -5.82185E-03
            1883               1     17.3739E-03     11.6280E-03    -3.51373E-03    -3.00518E-03
            1884               1     36.3393E-03     36.8408E-03    -2.47555E-03    -3.40061E-03
            1885               1     30.2162E-03     30.8215E-03    -4.20154E-03    -3.93239E-03
            1886               1     23.2117E-03     22.8039E-03    -5.74605E-03    -4.95049E-03
            1887               1     17.4945E-03     16.7686E-03    -6.81193E-03    -5.81498E-03
            1888               1     13.1276E-03     11.8502E-03    -7.09706E-03    -6.14506E-03
            1889               1     12.8691E-03     10.7214E-03    -7.11115E-03    -5.95932E-03
            1890               1     15.4882E-03     14.3641E-03    -6.33052E-03    -5.44132E-03
            1891               1     18.0521E-03     20.5315E-03    -3.85024E-03    -4.95181E-03
            1892               1     38.4369E-03     38.2673E-03    -3.31885E-03    -3.68521E-03
            1893               1     31.8112E-03     32.4098E-03    -5.18380E-03    -5.37176E-03
            1894               1     24.9255E-03     25.1243E-03    -6.05939E-03    -5.36487E-03
            1895               1     18.1033E-03     17.3012E-03    -6.75742E-03    -5.84371E-03
            1896               1     13.2655E-03     11.7304E-03    -7.05524E-03    -6.02078E-03
            1897               1     12.3427E-03     11.1073E-03    -6.84477E-03    -5.99021E-03
            1898               1     14.9208E-03     16.0843E-03    -5.80778E-03    -6.09702E-03
            1899               1     21.2625E-03     20.7597E-03    -3.87225E-03    -4.62826E-03
            1900               1     40.8225E-03     40.4251E-03    -3.36407E-03    -3.59305E-03
            1901               1     33.1125E-03     33.0723E-03    -5.22198E-03    -5.12318E-03
            1902               1     25.9516E-03     25.9173E-03    -6.48249E-03    -6.14221E-03
            1903               1     18.8112E-03     18.2938E-03    -6.90894E-03    -6.22601E-03
            1904               1     13.4481E-03     12.2011E-03    -7.08098E-03    -6.38504E-03
            1905               1     12.0296E-03     11.8643E-03    -6.64843E-03    -6.46215E-03
            1906               1     15.8039E-03     15.9404E-03    -5.55013E-03    -5.65313E-03
            1907               1     22.5184E-03     22.9146E-03    -4.04157E-03    -4.38632E-03
            1908               1     43.0135E-03     42.2490E-03    -3.61409E-03    -3.55234E-03
            1909               1     34.6978E-03     34.4330E-03    -5.37764E-03    -5.26376E-03
            1910               1     26.6152E-03     26.4097E-03    -6.45250E-03    -6.15713E-03
            1911               1     19.4365E-03     18.9487E-03    -7.12731E-03    -6.76602E-03
            1912               1     13.4971E-03     13.0208E-03    -7.09645E-03    -6.86070E-03
            1913               1     12.0687E-03     11.9853E-03    -6.56695E-03    -6.46191E-03
            1914               1     16.6404E-03     17.0039E-03    -5.60857E-03    -5.74696E-03
            1915               1     24.4877E-03     24.0597E-03    -4.03444E-03    -4.28641E-03
            1916               1     44.7815E-03     44.2152E-03    -3.67877E-03    -3.56231E-03
            1917               1     36.0022E-03     35.5301E-03    -5.36071E-03    -5.17738E-03
            1918               1     27.6644E-03     27.4141E-03    -6.60390E-03    -6.40572E-03
            1919               1     19.6287E-03     19.4873E-03    -7.13487E-03    -7.06562E-03
            1920               1     13.5383E-03     13.3865E-03    -7.16632E-03    -7.13017E-03
            1921               1     12.4525E-03     12.6909E-03    -6.63641E-03    -6.75227E-03
            1922               1     17.6770E-03     17.7969E-03    -5.54727E-03    -5.68165E-03
            1923               1     25.8487E-03     25.6708E-03    -4.20140E-03    -4.20188E-03
            1924               1     47.0163E-03     45.9876E-03    -3.64127E-03    -3.40178E-03
            1925               1     37.4748E-03     37.2175E-03    -5.51143E-03    -5.24893E-03
            1926               1     28.3951E-03     28.3176E-03    -6.66361E-03    -6.65158E-03
            1927               1     19.9420E-03     19.9727E-03    -7.20328E-03    -7.29835E-03
            1928               1     13.5142E-03     13.8723E-03    -7.20862E-03    -7.48016E-03
            1929               1     12.8025E-03     13.3064E-03    -6.66197E-03    -6.90581E-03
            1930               1     18.8547E-03     18.9635E-03    -5.66407E-03    -5.73444E-03
            1931               1     27.5882E-03     27.2981E-03    -4.04271E-03    -4.06951E-03
            1932               1     48.6695E-03     48.2302E-03    -4.12198E-03    -3.63583E-03
            1933               1     38.8629E-03     38.4784E-03    -5.64611E-03    -5.42998E-03
            1934               1     29.0433E-03     29.2672E-03    -6.66198E-03    -6.63209E-03
            1935               1     20.4117E-03     21.0924E-03    -7.33971E-03    -7.89134E-03
            1936               1     13.3557E-03     14.1194E-03    -7.24397E-03    -7.81631E-03
            1937               1     13.0366E-03     13.6681E-03    -6.56763E-03    -6.87792E-03
            1938               1     19.8774E-03     20.2484E-03    -5.63080E-03    -5.72842E-03
            1939               1     29.2476E-03     28.9175E-03    -4.27971E-03    -3.99128E-03
            1940               1     50.7470E-03     49.5402E-03    -4.04984E-03    -3.41915E-03
            1941               1     40.0812E-03     40.5743E-03    -5.93656E-03    -5.32096E-03
            1942               1     30.2578E-03     31.1335E-03    -7.20121E-03    -7.86391E-03
            1943               1     19.5172E-03     20.1712E-03    -7.00509E-03    -7.92959E-03
            1944               1     12.9019E-03     14.0103E-03    -6.89558E-03    -7.70238E-03
            1945               1     13.8069E-03     15.1619E-03    -6.75016E-03    -7.33025E-03
            1946               1     20.9712E-03     21.3517E-03    -5.50033E-03    -5.33977E-03
            1947               1     30.5616E-03     30.6859E-03    -3.92353E-03    -3.61896E-03
            1948               1     53.3375E-03     54.2315E-03    -5.76267E-03    -4.53939E-03
            1949               1     42.4382E-03     42.8457E-03    -7.70373E-03    -8.32172E-03
            1950               1     28.6119E-03     28.2933E-03    -6.81713E-03    -7.94148E-03
            1951               1     19.0079E-03     19.1374E-03    -6.26153E-03    -7.12979E-03
            1952               1     11.1048E-03     12.3139E-03    -5.98279E-03    -6.89372E-03
            1953               1     12.1841E-03     13.5285E-03    -5.97507E-03    -6.65807E-03
            1954               1     22.5971E-03     23.6696E-03    -6.39763E-03    -6.48219E-03
            1955               1     33.3984E-03     33.2482E-03    -4.55345E-03    -3.74726E-03
            1956               1     58.5208E-03     52.8320E-03    -10.7966E-03    -10.7317E-03
            1957               1     39.5851E-03     35.5893E-03    -8.00093E-03    -8.93978E-03
            1958               1     27.3339E-03     24.6386E-03    -5.35262E-03    -5.73692E-03
            1959               1     16.4999E-03     15.2430E-03    -4.60968E-03    -5.12541E-03
            1960               1     8.26778E-03     8.44439E-03    -4.11304E-03    -4.47335E-03
            1961               1     9.89499E-03     10.2822E-03    -4.18300E-03    -4.52136E-03
            1962               1     19.9161E-03     19.3883E-03    -5.54768E-03    -5.84008E-03
            1963               1     35.0678E-03     34.2165E-03    -7.42904E-03    -6.66629E-03
            1964               1     50.9491E-03     47.7525E-03     4.27247E-03     3.60211E-03
            1965               1     38.5272E-03     35.4536E-03    -999.619E-06    -355.012E-06
            1966               1     29.3045E-03     27.6374E-03    -4.55998E-03    -4.04855E-03
            1967               1     20.1093E-03     19.5313E-03    -5.97412E-03    -5.42134E-03
            1968               1     13.6033E-03     13.4742E-03    -6.91288E-03    -6.22887E-03
            1969               1     12.0663E-03     10.3813E-03    -6.46478E-03    -5.93853E-03
            1970               1     17.8422E-03     12.5883E-03    -5.37862E-03    -4.35089E-03
            1971               1     25.3737E-03     18.3591E-03    -1.75442E-03    -1.26347E-03
            1972               1     53.5797E-03     54.1983E-03    -695.210E-06    -1.94758E-03
            1973               1     43.1642E-03     43.9927E-03    -1.81012E-03    -1.38500E-03
            1974               1     30.9538E-03     30.5409E-03    -3.69975E-03    -2.57566E-03
            1975               1     20.9451E-03     20.4699E-03    -5.04258E-03    -3.73854E-03
            1976               1     11.8627E-03     10.5747E-03    -5.45968E-03    -4.20113E-03
            1977               1     10.6227E-03     7.95835E-03    -5.58143E-03    -4.12096E-03
            1978               1     17.5748E-03     16.8516E-03    -4.74306E-03    -3.67761E-03
            1979               1     25.4676E-03     28.1901E-03    -2.67465E-03    -4.04722E-03
            1980               1     54.8824E-03     54.4329E-03    -2.11508E-03    -2.60244E-03
            1981               1     44.3261E-03     45.1171E-03    -3.45166E-03    -3.77775E-03
            1982               1     33.2818E-03     33.8993E-03    -3.95936E-03    -3.03428E-03
            1983               1     21.6267E-03     21.0512E-03    -4.76538E-03    -3.54300E-03
            1984               1     12.0782E-03     10.5755E-03    -5.15853E-03    -3.81470E-03
            1985               1     9.67267E-03     8.41715E-03    -5.03411E-03    -3.93087E-03
            1986               1     16.9103E-03     18.4251E-03    -4.32377E-03    -4.66835E-03
            1987               1     28.3828E-03     27.5928E-03    -2.82756E-03    -3.71945E-03
            1988               1     56.8044E-03     56.2288E-03    -2.12272E-03    -2.45150E-03
            1989               1     45.3610E-03     45.2628E-03    -3.60088E-03    -3.50072E-03
            1990               1     34.1236E-03     34.2576E-03    -4.59763E-03    -4.20419E-03
            1991               1     22.6135E-03     22.3783E-03    -4.83477E-03    -3.93791E-03
            1992               1     12.2306E-03     10.7411E-03    -5.06949E-03    -4.15172E-03
            1993               1     9.22612E-03     9.02983E-03    -4.82449E-03    -4.54148E-03
            1994               1     17.7653E-03     17.9164E-03    -4.00942E-03    -4.08486E-03
            1995               1     29.0275E-03     29.4088E-03    -2.92185E-03    -3.34724E-03
            1996               1     58.5907E-03     57.5210E-03    -2.53732E-03    -2.47847E-03
            1997               1     46.6485E-03     46.3160E-03    -3.80341E-03    -3.69701E-03
            1998               1     34.6720E-03     34.5015E-03    -4.57213E-03    -4.21209E-03
            1999               1     23.2036E-03     22.7478E-03    -5.11277E-03    -4.66316E-03
            2000               1     12.4355E-03     11.7836E-03    -5.07344E-03    -4.73744E-03
            2001               1     9.17407E-03     9.05012E-03    -4.71375E-03    -4.52870E-03
            2002               1     18.2976E-03     18.7012E-03    -4.05265E-03    -4.17968E-03
            2003               1     30.6461E-03     30.0433E-03    -2.96210E-03    -3.22807E-03
            2004               1     59.7726E-03     59.0169E-03    -2.57998E-03    -2.44883E-03
            2005               1     47.6075E-03     47.0010E-03    -3.83512E-03    -3.62728E-03
            2006               1     35.5792E-03     35.3134E-03    -4.74961E-03    -4.53119E-03
            2007               1     23.3666E-03     23.1798E-03    -5.13325E-03    -5.04241E-03
            2008               1     12.4878E-03     12.1790E-03    -5.16469E-03    -5.10697E-03
            2009               1     9.53295E-03     9.75165E-03    -4.78212E-03    -4.87774E-03
            2010               1     19.1731E-03     19.2571E-03    -4.02168E-03    -4.13154E-03
            2011               1     31.4097E-03     31.1916E-03    -3.10261E-03    -3.08840E-03
            2012               1     61.5906E-03     60.2768E-03    -2.57443E-03    -2.28652E-03
            2013               1     48.7310E-03     48.4271E-03    -3.98484E-03    -3.67741E-03
            2014               1     36.0753E-03     35.9682E-03    -4.85782E-03    -4.86372E-03
            2015               1     23.6440E-03     23.6043E-03    -5.20941E-03    -5.35351E-03
            2016               1     12.4313E-03     12.6584E-03    -5.22322E-03    -5.55570E-03
            2017               1     9.86668E-03     10.4663E-03    -4.82901E-03    -5.10612E-03
            2018               1     20.0471E-03     20.1931E-03    -4.11916E-03    -4.16346E-03
            2019               1     32.8043E-03     32.3850E-03    -2.97143E-03    -2.93872E-03
            2020               1     62.6135E-03     62.0514E-03    -3.15655E-03    -2.54220E-03
            2021               1     49.7257E-03     49.2978E-03    -4.18359E-03    -3.92089E-03
            2022               1     36.5546E-03     36.8676E-03    -4.85332E-03    -4.85171E-03
            2023               1     24.0369E-03     24.6581E-03    -5.42020E-03    -6.13768E-03
            2024               1     12.0632E-03     12.6464E-03    -5.26178E-03    -6.00788E-03
            2025               1     10.0699E-03     10.8436E-03    -4.69805E-03    -5.08019E-03
            2026               1     20.8776E-03     21.3123E-03    -4.08789E-03    -4.16515E-03
            2027               1     33.8831E-03     33.5976E-03    -3.19264E-03    -2.79517E-03
            2028               1     64.1121E-03     62.7122E-03    -3.12633E-03    -2.31279E-03
            2029               1     50.5410E-03     51.2962E-03    -4.52153E-03    -3.76713E-03
            2030               1     37.5303E-03     38.4858E-03    -5.55276E-03    -6.39924E-03
            2031               1     22.9896E-03     23.3464E-03    -5.12201E-03    -6.30708E-03
            2032               1     11.7594E-03     12.7464E-03    -4.91717E-03    -5.98525E-03
            2033               1     10.8052E-03     12.5544E-03    -4.81234E-03    -5.59432E-03
            2034               1     21.6649E-03     22.3382E-03    -3.83717E-03    -3.62060E-03
            2035               1     34.8034E-03     34.8424E-03    -2.84094E-03    -2.33865E-03
            2036               1     66.0577E-03     67.1842E-03    -5.20520E-03    -3.62464E-03
            2037               1     52.4876E-03     52.9396E-03    -6.66915E-03    -7.39915E-03
            2038               1     35.4298E-03     34.6874E-03    -5.27733E-03    -6.67465E-03
            2039               1     22.5609E-03     22.2982E-03    -4.36629E-03    -5.50547E-03
            2040               1     9.80774E-03     10.7056E-03    -3.95557E-03    -5.13689E-03
            2041               1     9.05359E-03     10.6926E-03    -3.91870E-03    -4.85476E-03
            2042               1     22.9053E-03     24.2218E-03    -4.55909E-03    -4.77594E-03
            2043               1     36.7711E-03     36.9780E-03    -3.39123E-03    -2.28406E-03
            2044               1     70.5423E-03     63.6488E-03    -11.4295E-03    -11.2452E-03
            2045               1     48.5817E-03     43.3588E-03    -7.24200E-03    -8.36511E-03
            2046               1     33.9343E-03     30.4064E-03    -3.69256E-03    -4.19083E-03
            2047               1     20.1345E-03     18.1500E-03    -2.55317E-03    -3.20280E-03
            2048               1     7.67034E-03     7.37172E-03    -1.78429E-03    -2.27392E-03
            2049               1     7.09997E-03     7.13744E-03    -1.93986E-03    -2.38629E-03
            2050               1     20.1005E-03     18.8524E-03    -3.49298E-03    -3.91969E-03
            2051               1     37.3871E-03     35.8298E-03    -6.28019E-03    -5.48602E-03
            2052               1     65.4372E-03     61.4484E-03     7.26365E-03     6.43392E-03
            2053               1     48.2136E-03     44.5473E-03     1.36071E-03     2.17093E-03
            2054               1     35.9369E-03     33.9609E-03    -3.00873E-03    -2.40855E-03
            2055               1     23.5758E-03     22.9367E-03    -4.66892E-03    -4.05695E-03
            2056               1     13.6403E-03     13.9171E-03    -5.80102E-03    -5.08246E-03
            2057               1     10.4786E-03     8.74052E-03    -5.54922E-03    -5.00515E-03
            2058               1     18.6571E-03     13.1096E-03    -4.19147E-03    -3.12754E-03
            2059               1     30.4475E-03     23.3984E-03    -484.953E-06    -51.0477E-06
            2060               1     67.1351E-03     67.7242E-03     924.284E-06    -547.231E-06
            2061               1     53.7655E-03     54.9835E-03     316.386E-06     857.773E-06
            2062               1     37.8942E-03     37.7360E-03    -1.80304E-03    -501.127E-06
            2063               1     25.1914E-03     25.1408E-03    -3.34802E-03    -1.94324E-03
            2064               1     12.1248E-03     11.4147E-03    -3.97524E-03    -2.69147E-03
            2065               1     7.99399E-03     5.44871E-03    -4.06876E-03    -2.59251E-03
            2066               1     18.8173E-03     18.6237E-03    -3.40827E-03    -2.34047E-03
            2067               1     30.2115E-03     33.0243E-03    -1.58317E-03    -3.07689E-03
            2068               1     67.2592E-03     66.9513E-03    -1.14592E-03    -1.63797E-03
            2069               1     54.4358E-03     55.5298E-03    -1.83433E-03    -2.19563E-03
            2070               1     40.8844E-03     42.2046E-03    -2.04916E-03    -1.02301E-03
            2071               1     25.8388E-03     25.8631E-03    -2.98867E-03    -1.81165E-03
            2072               1     12.7404E-03     11.9732E-03    -3.32541E-03    -2.06118E-03
            2073               1     7.15859E-03     6.41789E-03    -3.43624E-03    -2.41538E-03
            2074               1     17.8259E-03     19.7447E-03    -2.82261E-03    -3.27694E-03
            2075               1     32.6161E-03     31.9368E-03    -1.85404E-03    -2.74723E-03
            2076               1     69.0615E-03     68.1890E-03    -1.00786E-03    -1.16399E-03
            2077               1     55.1422E-03     55.7057E-03    -2.29475E-03    -2.00441E-03
            2078               1     41.3224E-03     42.1539E-03    -2.99401E-03    -2.77098E-03
            2079               1     27.0791E-03     27.5492E-03    -2.88971E-03    -2.21455E-03
            2080               1     12.9296E-03     11.9947E-03    -3.27726E-03    -2.71972E-03
            2081               1     6.18099E-03     6.67088E-03    -2.98220E-03    -2.97559E-03
            2082               1     18.6922E-03     19.2286E-03    -2.55374E-03    -2.64804E-03
            2083               1     33.0041E-03     33.5678E-03    -1.56851E-03    -1.96321E-03
            2084               1     69.8513E-03     69.3556E-03    -2.28234E-03    -1.62397E-03
            2085               1     56.0182E-03     56.1381E-03    -2.66535E-03    -2.40195E-03
            2086               1     41.5843E-03     42.4982E-03    -2.94227E-03    -2.67065E-03
            2087               1     27.5971E-03     28.0752E-03    -3.49802E-03    -3.83580E-03
            2088               1     12.7673E-03     12.3110E-03    -3.04922E-03    -3.46230E-03
            2089               1     6.06665E-03     6.68971E-03    -2.75101E-03    -2.89710E-03
            2090               1     18.7952E-03     19.9661E-03    -2.24404E-03    -2.42411E-03
            2091               1     34.1369E-03     33.8540E-03    -1.85780E-03    -1.72866E-03
            2092               1     70.6295E-03     69.4056E-03    -2.14916E-03    -1.18779E-03
            2093               1     56.3724E-03     57.5228E-03    -3.16476E-03    -2.25867E-03
            2094               1     42.4857E-03     43.5535E-03    -3.87576E-03    -4.63408E-03
            2095               1     26.3938E-03     26.3768E-03    -3.09988E-03    -4.17364E-03
            2096               1     12.7911E-03     12.7531E-03    -2.88978E-03    -3.82857E-03
            2097               1     6.34403E-03     8.23558E-03    -2.56493E-03    -3.36427E-03
            2098               1     19.4067E-03     20.4768E-03    -1.98002E-03    -1.82018E-03
            2099               1     34.2284E-03     34.6202E-03    -1.46369E-03    -937.398E-06
            2100               1     72.1788E-03     73.4352E-03    -4.53713E-03    -2.67597E-03
            2101               1     57.9040E-03     58.3959E-03    -5.44600E-03    -6.13766E-03
            2102               1     39.9242E-03     38.8840E-03    -3.68654E-03    -5.10605E-03
            2103               1     26.1092E-03     25.3112E-03    -2.50602E-03    -3.63840E-03
            2104               1     10.9622E-03     10.6156E-03    -1.80218E-03    -3.03558E-03
            2105               1     4.71477E-03     6.51921E-03    -1.77021E-03    -2.76160E-03
            2106               1     20.1408E-03     21.7577E-03    -2.33196E-03    -2.61986E-03
            2107               1     35.4821E-03     35.9250E-03    -1.95610E-03    -755.074E-06
            2108               1     75.7051E-03     68.3635E-03    -11.2642E-03    -10.9484E-03
            2109               1     53.3530E-03     47.4615E-03    -6.27482E-03    -7.43025E-03
            2110               1     38.3196E-03     34.2411E-03    -2.13821E-03    -2.65489E-03
            2111               1     23.7543E-03     21.1327E-03    -643.197E-06    -1.32497E-03
            2112               1     10.3059E-03     9.23171E-03     350.186E-06    -162.805E-06
            2113               1     3.92589E-03     3.58838E-03     348.004E-06    -156.791E-06
            2114               1     17.6964E-03     16.3077E-03    -1.24676E-03    -1.70249E-03
            2115               1     34.6839E-03     33.2595E-03    -4.44293E-03    -3.57519E-03
            2116               1     1.31866E-03     1.29692E-03     662.124E-06     671.121E-06
            2117               1     1.47950E-03     1.49277E-03     849.937E-06     860.413E-06
            2118               1     1.49012E-03     1.49996E-03     858.553E-06     865.142E-06
            2119               1     1.46744E-03     1.47904E-03     846.963E-06     853.777E-06
            2120               1     1.46744E-03     1.47904E-03     846.963E-06     853.777E-06
            2121               1     1.49012E-03     1.49996E-03     858.553E-06     865.142E-06
            2122               1     1.47950E-03     1.49277E-03     849.937E-06     860.413E-06
            2123               1     1.31866E-03     1.29692E-03     662.124E-06     671.121E-06
            2124               1     1.13934E-03     1.14240E-03     645.630E-06     646.128E-06
            2125               1     1.60224E-03     1.63503E-03     920.355E-06     938.865E-06
            2126               1     1.49321E-03     1.51492E-03     860.521E-06     873.167E-06
            2127               1     1.48496E-03     1.50907E-03     857.121E-06     871.054E-06
            2128               1     1.48496E-03     1.50907E-03     857.121E-06     871.054E-06
            2129               1     1.49321E-03     1.51492E-03     860.521E-06     873.167E-06
            2130               1     1.60224E-03     1.63503E-03     920.355E-06     938.865E-06
            2131               1     1.13934E-03     1.14240E-03     645.630E-06     646.128E-06
            2132               1     1.09082E-03     1.09577E-03     613.583E-06     623.502E-06
            2133               1     1.46649E-03     1.47566E-03     840.274E-06     842.676E-06
            2134               1     1.52551E-03     1.53988E-03     879.378E-06     886.638E-06
            2135               1     1.51167E-03     1.52469E-03     872.668E-06     880.056E-06
            2136               1     1.51167E-03     1.52469E-03     872.668E-06     880.056E-06
            2137               1     1.52551E-03     1.53988E-03     879.378E-06     886.638E-06
            2138               1     1.46649E-03     1.47566E-03     840.274E-06     842.676E-06
            2139               1     1.09082E-03     1.09577E-03     613.583E-06     623.502E-06
            3835               1     49.5570E-03     59.2083E-03     27.6135E-03     33.3487E-03
            3836               1     73.4504E-03     80.8874E-03     41.4693E-03     43.6060E-03
            3837               1     82.7379E-03     84.9273E-03     47.1547E-03     46.7537E-03
            3838               1     86.9334E-03     90.0881E-03     49.9716E-03     50.6721E-03
            3839               1     88.4408E-03     88.7670E-03     51.0606E-03     50.7652E-03
            3840               1     84.1971E-03     85.1294E-03     48.5132E-03     48.9568E-03
            3841               1     80.6073E-03     79.3160E-03     46.3007E-03     45.5921E-03
            3842               1     63.2849E-03     65.2535E-03     35.7305E-03     34.0456E-03
            3843               1     58.8232E-03     54.8475E-03     30.0057E-03     29.6467E-03
            3844               1     79.4161E-03     85.0093E-03     43.5125E-03     45.7878E-03
            3845               1     86.6877E-03     91.5221E-03     48.3432E-03     49.8331E-03
            3846               1     90.0900E-03     90.9153E-03     51.5350E-03     51.2971E-03
            3847               1     88.9291E-03     91.7254E-03     51.3027E-03     52.6042E-03
            3848               1     87.4220E-03     87.5998E-03     50.2623E-03     50.4733E-03
            3849               1     81.7440E-03     81.7963E-03     46.9936E-03     47.0116E-03
            3850               1     52.0736E-03     58.3460E-03     29.9904E-03     33.5969E-03
            3851               1     64.4442E-03     66.7419E-03     29.9654E-03     28.6312E-03
            3852               1     84.8734E-03     82.0283E-03     44.2520E-03     43.0134E-03
            3853               1     91.9334E-03     93.4948E-03     50.8013E-03     51.1681E-03
            3854               1     92.9155E-03     96.8993E-03     52.7439E-03     54.6422E-03
            3855               1     92.1054E-03     94.1944E-03     53.1319E-03     54.2987E-03
            3856               1     88.6467E-03     91.2495E-03     51.0664E-03     52.5773E-03
            3857               1     74.7648E-03     80.6893E-03     42.6963E-03     45.9045E-03
            3858               1     54.0237E-03     58.3310E-03     28.5753E-03     31.9524E-03
            3859               1     80.9095E-03     73.7825E-03     29.8236E-03     28.1315E-03
            3860               1     88.5274E-03     88.1100E-03     44.6005E-03     42.6362E-03
            3861               1     95.5379E-03     97.7272E-03     51.9295E-03     53.4153E-03
            3862               1     92.4556E-03     96.2183E-03     52.3995E-03     54.9188E-03
            3863               1     91.8167E-03     94.6109E-03     52.7913E-03     54.5146E-03
            3864               1     88.3497E-03     92.9420E-03     50.8871E-03     53.3385E-03
            3865               1     76.4668E-03     81.0888E-03     42.2138E-03     44.9797E-03
            3866               1     59.9150E-03     66.0894E-03     28.1823E-03     31.1011E-03
            3867               1     94.2746E-03     99.9038E-03     33.7813E-03     31.1973E-03
            3868               1     99.9090E-03     101.839E-03     47.3091E-03     50.7235E-03
            3869               1     91.3535E-03     93.8923E-03     49.1485E-03     52.3971E-03
            3870               1     90.5771E-03     90.9923E-03     50.7162E-03     51.8688E-03
            3871               1     86.2547E-03     90.4059E-03     49.5869E-03     52.1882E-03
            3872               1     84.4280E-03     87.7955E-03     48.6933E-03     50.3681E-03
            3873               1     85.3300E-03     89.2314E-03     46.6098E-03     47.6719E-03
            3874               1     77.2720E-03     77.9215E-03     30.5611E-03     32.3905E-03
            3875               1     131.510E-03     111.888E-03     40.6935E-03     45.6192E-03
            3876               1     99.8352E-03     94.1306E-03     46.4540E-03     50.0911E-03
            3877               1     88.7764E-03     83.6071E-03     45.9974E-03     46.3788E-03
            3878               1     83.6472E-03     83.4400E-03     46.4247E-03     47.8944E-03
            3879               1     80.8110E-03     80.8721E-03     46.2730E-03     46.6873E-03
            3880               1     76.5743E-03     79.7389E-03     44.0811E-03     45.2013E-03
            3881               1     80.7787E-03     83.9487E-03     44.6139E-03     45.0534E-03
            3882               1     96.2505E-03     100.333E-03     39.6973E-03     37.6037E-03
            3883               1     90.8484E-03     90.4450E-03     19.0336E-03     19.0068E-03
            3884               1     74.1060E-03     73.7139E-03     19.0336E-03     19.0068E-03
            3885               1     58.2989E-03     57.9308E-03     19.0336E-03     19.0068E-03
            3886               1     44.4368E-03     44.1250E-03     19.0336E-03     19.0068E-03
            3887               1     34.9185E-03     34.7399E-03     19.0336E-03     19.0068E-03
            3888               1     33.6566E-03     33.6973E-03     19.0336E-03     19.0068E-03
            3889               1     41.4129E-03     41.6287E-03     19.0336E-03     19.0068E-03
            3890               1     54.4619E-03     54.7649E-03     19.0336E-03     19.0068E-03
            3891               1     117.530E-03     95.2294E-03     45.3558E-03     45.9062E-03
            3892               1     105.555E-03     94.7686E-03     51.6118E-03     53.0496E-03
            3893               1     94.6441E-03     85.0707E-03     46.9410E-03     47.9081E-03
            3894               1     88.7339E-03     84.3798E-03     47.3399E-03     48.5453E-03
            3895               1     84.8278E-03     83.9391E-03     47.3591E-03     48.4465E-03
            3896               1     81.0122E-03     83.8604E-03     46.5982E-03     47.7564E-03
            3897               1     88.2143E-03     91.9021E-03     50.9228E-03     51.9927E-03
            3898               1     78.5491E-03     87.4577E-03     41.1674E-03     42.4317E-03
            3899               1     63.9790E-03     83.6546E-03     34.0116E-03     34.8255E-03
            3900               1     95.4564E-03     112.371E-03     51.9569E-03     53.2635E-03
            3901               1     88.4043E-03     99.7069E-03     50.1204E-03     51.1318E-03
            3902               1     89.1596E-03     97.1803E-03     51.2589E-03     52.4706E-03
            3903               1     89.0455E-03     93.1162E-03     51.3876E-03     52.4418E-03
            3904               1     87.7297E-03     89.5588E-03     50.2441E-03     51.4430E-03
            3905               1     95.6701E-03     94.2088E-03     53.0643E-03     54.1153E-03
            3906               1     66.9290E-03     66.9502E-03     37.2641E-03     38.4660E-03
            3907               1     100.968E-03     89.4362E-03     40.0807E-03     44.2209E-03
            3908               1     93.1566E-03     92.9338E-03     50.5355E-03     53.2703E-03
            3909               1     92.4606E-03     90.7113E-03     52.0434E-03     52.2580E-03
            3910               1     94.3018E-03     94.5950E-03     53.8128E-03     54.6143E-03
            3911               1     93.3452E-03     93.6303E-03     53.5447E-03     54.0452E-03
            3912               1     88.2074E-03     90.0222E-03     50.8850E-03     51.8030E-03
            3913               1     86.6509E-03     88.1603E-03     49.8830E-03     50.1401E-03
            3914               1     81.5629E-03     85.4730E-03     40.1181E-03     39.0718E-03
            3915               1     73.0470E-03     74.1300E-03     36.7526E-03     35.2032E-03
            3916               1     93.4357E-03     96.5331E-03     51.8202E-03     54.3903E-03
            3917               1     96.0797E-03     97.9691E-03     54.8545E-03     56.4821E-03
            3918               1     97.8904E-03     99.6740E-03     56.1332E-03     57.4877E-03
            3919               1     96.9187E-03     99.8356E-03     55.7974E-03     57.6321E-03
            3920               1     94.3266E-03     96.7072E-03     54.2997E-03     55.7818E-03
            3921               1     89.5508E-03     92.5427E-03     51.4587E-03     52.8734E-03
            3922               1     65.6558E-03     68.5943E-03     34.5028E-03     36.6867E-03
            3923               1     60.3100E-03     56.0574E-03     33.5374E-03     30.9982E-03
            3924               1     89.1101E-03     84.4873E-03     50.8268E-03     48.0699E-03
            3925               1     99.7123E-03     104.028E-03     57.2149E-03     59.6925E-03
            3926               1     98.2363E-03     102.045E-03     56.5460E-03     58.7536E-03
            3927               1     98.7789E-03     101.211E-03     56.9623E-03     58.3710E-03
            3928               1     99.8476E-03     102.802E-03     57.6387E-03     59.3476E-03
            3929               1     83.6474E-03     88.4756E-03     48.2874E-03     51.0711E-03
            3930               1     53.0101E-03     60.0584E-03     30.4956E-03     34.5764E-03
            3931               1     61.8360E-03     60.5126E-03     35.6582E-03     34.5801E-03
            3932               1     87.6513E-03     91.5262E-03     50.4155E-03     52.6805E-03
            3933               1     94.5280E-03     97.4082E-03     54.2998E-03     55.3990E-03
            3934               1     97.7995E-03     100.349E-03     56.4163E-03     57.5973E-03
            3935               1     97.4688E-03     100.684E-03     56.2641E-03     57.9566E-03
            3936               1     95.3663E-03     97.4552E-03     54.9732E-03     56.1645E-03
            3937               1     90.3155E-03     92.7648E-03     52.0073E-03     53.1929E-03
            3938               1     63.0941E-03     66.6436E-03     34.7993E-03     37.2878E-03
            3939               1     73.6678E-03     70.5515E-03     35.3118E-03     39.7116E-03
            3940               1     84.2926E-03     88.4587E-03     48.3433E-03     50.5949E-03
            3941               1     90.1433E-03     91.1756E-03     52.0370E-03     52.0662E-03
            3942               1     94.5125E-03     96.5566E-03     54.5431E-03     55.1774E-03
            3943               1     95.4618E-03     96.6844E-03     55.0979E-03     55.4898E-03
            3944               1     90.8460E-03     92.8413E-03     52.4449E-03     53.2507E-03
            3945               1     88.9439E-03     89.8653E-03     51.2672E-03     51.2689E-03
            3946               1     77.8379E-03     81.5803E-03     40.2507E-03     39.2325E-03
            5375               1     1.98144E-03     1.90029E-03    -734.011E-06    -737.678E-06
            5376               1     1.60435E-03     1.60484E-03    -836.023E-06    -858.399E-06
            5377               1     1.46903E-03     1.47393E-03    -819.659E-06    -827.981E-06
            5378               1     1.47454E-03     1.49143E-03    -849.145E-06    -859.593E-06
            5379               1     1.47454E-03     1.49143E-03    -849.145E-06    -859.593E-06
            5380               1     1.46903E-03     1.47393E-03    -819.659E-06    -827.981E-06
            5381               1     1.60435E-03     1.60484E-03    -836.023E-06    -858.399E-06
            5382               1     1.98144E-03     1.90029E-03    -734.011E-06    -737.678E-06
            5383               1     1.54863E-03     1.56093E-03    -591.551E-06    -583.099E-06
            5384               1     1.65537E-03     1.69092E-03    -858.629E-06    -878.453E-06
            5385               1     1.58649E-03     1.62771E-03    -899.069E-06    -925.024E-06
            5386               1     1.59711E-03     1.63334E-03    -919.378E-06    -940.347E-06
            5387               1     1.59711E-03     1.63334E-03    -919.378E-06    -940.347E-06
            5388               1     1.58649E-03     1.62771E-03    -899.069E-06    -925.024E-06
            5389               1     1.65537E-03     1.69092E-03    -858.629E-06    -878.453E-06
            5390               1     1.54863E-03     1.56093E-03    -591.551E-06    -583.099E-06
            5391               1     1.22733E-03     1.23003E-03    -523.044E-06    -529.491E-06
            5392               1     1.48766E-03     1.49399E-03    -793.972E-06    -792.567E-06
            5393               1     1.66306E-03     1.70377E-03    -942.568E-06    -964.104E-06
            5394               1     1.68557E-03     1.72259E-03    -972.319E-06    -993.731E-06
            5395               1     1.68557E-03     1.72259E-03    -972.319E-06    -993.731E-06
            5396               1     1.66306E-03     1.70377E-03    -942.568E-06    -964.104E-06
            5397               1     1.48766E-03     1.49399E-03    -793.972E-06    -792.567E-06
            5398               1     1.22733E-03     1.23003E-03    -523.044E-06    -529.491E-06
            5399               1     1.08635E-03     1.09415E-03    -544.015E-06    -547.998E-06
            5400               1     1.40271E-03     1.42729E-03    -778.015E-06    -791.209E-06
            5401               1     1.62712E-03     1.63858E-03    -929.599E-06    -934.877E-06
            5402               1     1.73335E-03     1.75934E-03    -999.592E-06    -1.01431E-03
            5403               1     1.73335E-03     1.75934E-03    -999.592E-06    -1.01431E-03
            5404               1     1.62712E-03     1.63858E-03    -929.599E-06    -934.877E-06
            5405               1     1.40271E-03     1.42729E-03    -778.015E-06    -791.209E-06
            5406               1     1.08635E-03     1.09415E-03    -544.015E-06    -547.998E-06
            5407               1     933.970E-06     964.032E-06    -517.777E-06    -536.915E-06
            5408               1     1.39100E-03     1.40377E-03    -793.803E-06    -800.056E-06
            5409               1     1.63362E-03     1.64501E-03    -938.157E-06    -944.259E-06
            5410               1     1.69159E-03     1.69714E-03    -975.320E-06    -978.429E-06
            5411               1     1.69159E-03     1.69714E-03    -975.320E-06    -978.429E-06
            5412               1     1.63362E-03     1.64501E-03    -938.157E-06    -944.259E-06
            5413               1     1.39100E-03     1.40377E-03    -793.803E-06    -800.056E-06
            5414               1     933.970E-06     964.032E-06    -517.777E-06    -536.915E-06
            5415               1     977.953E-06     1.01532E-03    -562.226E-06    -584.260E-06
            5416               1     1.44647E-03     1.45609E-03    -832.602E-06    -838.524E-06
            5417               1     1.57544E-03     1.57593E-03    -903.746E-06    -903.789E-06
            5418               1     1.62308E-03     1.61967E-03    -936.840E-06    -934.827E-06
            5419               1     1.62308E-03     1.61967E-03    -936.840E-06    -934.827E-06
            5420               1     1.57544E-03     1.57593E-03    -903.746E-06    -903.789E-06
            5421               1     1.44647E-03     1.45609E-03    -832.602E-06    -838.524E-06
            5422               1     977.953E-06     1.01532E-03    -562.226E-06    -584.260E-06
            5423               1     1.15698E-03     1.17003E-03    -613.081E-06    -624.962E-06
            5424               1     1.41265E-03     1.41868E-03    -813.986E-06    -817.945E-06
            5425               1     1.48399E-03     1.48003E-03    -856.034E-06    -853.773E-06
            5426               1     1.56885E-03     1.56601E-03    -905.385E-06    -903.828E-06
            5427               1     1.56885E-03     1.56601E-03    -905.385E-06    -903.828E-06
            5428               1     1.48399E-03     1.48003E-03    -856.034E-06    -853.773E-06
            5429               1     1.41265E-03     1.41868E-03    -813.986E-06    -817.945E-06
            5430               1     1.15698E-03     1.17003E-03    -613.081E-06    -624.962E-06
            6229               1     113.324E-03     102.326E-03    -22.2738E-03    -22.3539E-03
            6230               1     77.1576E-03     69.7983E-03    -17.5313E-03    -19.3594E-03
            6231               1     54.5171E-03     49.6052E-03    -12.5321E-03    -13.2454E-03
            6232               1     35.1023E-03     32.9571E-03    -11.1419E-03    -12.1207E-03
            6233               1     20.3985E-03     20.7145E-03    -10.0301E-03    -10.7284E-03
            6234               1     19.4636E-03     20.3604E-03    -9.83504E-03    -10.5012E-03
            6235               1     35.8945E-03     34.9318E-03    -11.9770E-03    -12.6525E-03
            6236               1     63.7917E-03     61.5026E-03    -14.6326E-03    -13.5548E-03
            6237               1     101.864E-03     103.631E-03    -12.6120E-03    -10.4369E-03
            6238               1     82.4028E-03     83.1547E-03    -16.9075E-03    -18.2306E-03
            6239               1     57.0063E-03     56.5493E-03    -15.2744E-03    -17.4382E-03
            6240               1     40.1690E-03     40.5622E-03    -14.2028E-03    -15.8610E-03
            6241               1     25.6326E-03     27.8399E-03    -13.4894E-03    -15.2677E-03
            6242               1     24.3809E-03     27.0468E-03    -13.2549E-03    -14.6626E-03
            6243               1     40.4205E-03     42.5000E-03    -13.6595E-03    -14.1003E-03
            6244               1     58.9276E-03     59.0153E-03    -9.76455E-03    -8.39418E-03
            6245               1     96.0407E-03     93.7401E-03    -9.12530E-03    -8.02524E-03
            6246               1     77.3565E-03     78.3119E-03    -13.4167E-03    -12.3454E-03
            6247               1     60.3305E-03     62.0829E-03    -16.0702E-03    -17.4365E-03
            6248               1     41.2620E-03     42.6498E-03    -15.6215E-03    -17.4454E-03
            6249               1     29.4493E-03     31.5521E-03    -15.3692E-03    -16.9689E-03
            6250               1     27.3563E-03     30.1139E-03    -14.7806E-03    -16.0733E-03
            6251               1     36.9749E-03     37.8855E-03    -12.2148E-03    -12.0677E-03
            6252               1     53.1836E-03     53.3217E-03    -8.50987E-03    -8.02735E-03
            6253               1     91.4563E-03     90.6966E-03    -9.28003E-03    -8.44574E-03
            6254               1     74.6489E-03     73.9930E-03    -12.6964E-03    -12.3953E-03
            6255               1     57.7900E-03     58.3970E-03    -14.9970E-03    -15.0382E-03
            6256               1     43.3320E-03     44.7130E-03    -16.4385E-03    -17.5368E-03
            6257               1     30.3086E-03     31.7983E-03    -16.0237E-03    -17.2294E-03
            6258               1     26.5209E-03     27.8561E-03    -14.6759E-03    -15.3563E-03
            6259               1     34.7022E-03     35.7576E-03    -12.3086E-03    -12.6675E-03
            6260               1     49.9609E-03     49.5649E-03    -9.15849E-03    -8.86282E-03
            6261               1     87.5765E-03     85.8187E-03    -8.20954E-03    -7.91324E-03
            6262               1     71.4884E-03     71.3098E-03    -12.4623E-03    -12.1006E-03
            6263               1     56.5913E-03     56.6129E-03    -15.0240E-03    -15.0542E-03
            6264               1     42.2490E-03     42.4755E-03    -16.0657E-03    -16.2900E-03
            6265               1     31.1198E-03     31.6548E-03    -16.2258E-03    -16.6916E-03
            6266               1     26.1457E-03     27.3010E-03    -14.7267E-03    -15.3078E-03
            6267               1     32.8105E-03     33.3668E-03    -12.4881E-03    -12.8300E-03
            6268               1     46.1020E-03     46.0373E-03    -8.71253E-03    -8.88442E-03
            6269               1     82.7695E-03     81.8901E-03    -8.40481E-03    -8.35540E-03
            6270               1     68.4630E-03     67.9961E-03    -12.0498E-03    -11.9625E-03
            6271               1     54.6436E-03     54.6567E-03    -14.7213E-03    -14.3645E-03
            6272               1     41.8275E-03     41.4865E-03    -16.1546E-03    -15.8675E-03
            6273               1     30.9351E-03     30.4773E-03    -15.9304E-03    -15.7953E-03
            6274               1     26.2772E-03     26.4826E-03    -14.9471E-03    -15.0531E-03
            6275               1     30.2234E-03     31.3504E-03    -12.2685E-03    -12.7389E-03
            6276               1     42.6380E-03     42.3095E-03    -8.93202E-03    -9.44089E-03
            6277               1     78.5507E-03     77.5552E-03    -7.66023E-03    -8.17018E-03
            6278               1     65.1412E-03     65.3791E-03    -11.9833E-03    -11.9594E-03
            6279               1     52.7593E-03     52.9121E-03    -14.5739E-03    -14.1548E-03
            6280               1     40.7643E-03     40.0367E-03    -15.6251E-03    -14.6234E-03
            6281               1     31.0050E-03     29.2692E-03    -16.0894E-03    -15.1248E-03
            6282               1     25.8693E-03     25.6632E-03    -14.8425E-03    -14.6834E-03
            6283               1     29.1456E-03     29.7240E-03    -12.6265E-03    -12.9941E-03
            6284               1     38.5704E-03     39.4823E-03    -8.77444E-03    -9.56509E-03
            6285               1     73.0232E-03     73.0293E-03    -7.63946E-03    -8.48265E-03
            6286               1     62.2099E-03     63.3176E-03    -11.6670E-03    -12.1499E-03
            6287               1     50.8231E-03     51.2011E-03    -13.8088E-03    -12.7363E-03
            6288               1     38.9861E-03     37.7326E-03    -15.2606E-03    -13.8328E-03
            6289               1     30.3923E-03     28.0070E-03    -15.7961E-03    -14.1637E-03
            6290               1     27.1491E-03     24.9709E-03    -15.5614E-03    -14.2501E-03
            6291               1     27.5059E-03     29.4779E-03    -12.9836E-03    -13.5796E-03
            6292               1     35.4754E-03     35.3244E-03    -8.75474E-03    -10.2366E-03
            6293               1     68.5856E-03     69.2349E-03    -5.90462E-03    -7.76060E-03
            6294               1     58.6696E-03     59.8688E-03    -9.88546E-03    -9.60973E-03
            6295               1     47.0796E-03     46.3672E-03    -12.9848E-03    -11.7141E-03
            6296               1     37.7640E-03     36.4193E-03    -15.2090E-03    -13.5580E-03
            6297               1     30.0314E-03     28.0381E-03    -15.9001E-03    -14.3596E-03
            6298               1     27.5885E-03     24.3910E-03    -15.8103E-03    -13.9937E-03
            6299               1     29.4323E-03     27.3958E-03    -14.4960E-03    -13.1343E-03
            6300               1     29.4371E-03     33.8590E-03    -8.92371E-03    -10.9647E-03
            6301               1     59.4101E-03     57.0489E-03     91.6535E-06    -1.23209E-03
            6302               1     51.7825E-03     48.4666E-03    -8.45959E-03    -7.86038E-03
            6303               1     44.5625E-03     42.7094E-03    -13.6399E-03    -12.9810E-03
            6304               1     36.8298E-03     36.1679E-03    -15.9218E-03    -15.2671E-03
            6305               1     31.8678E-03     31.3872E-03    -17.3035E-03    -16.4201E-03
            6306               1     28.8268E-03     27.6346E-03    -16.5607E-03    -15.9014E-03
            6307               1     30.1987E-03     25.3678E-03    -15.0537E-03    -13.7864E-03
            6308               1     27.3839E-03     19.7312E-03    -9.15677E-03    -8.48119E-03
            6309               1     79.3132E-03     71.1519E-03    -16.8345E-03    -17.1292E-03
            6310               1     54.0583E-03     48.9658E-03    -14.3027E-03    -15.6520E-03
            6311               1     38.8970E-03     35.3955E-03    -11.1510E-03    -11.6029E-03
            6312               1     26.7790E-03     25.3213E-03    -10.3586E-03    -11.0239E-03
            6313               1     18.3763E-03     18.3718E-03    -9.66238E-03    -10.0559E-03
            6314               1     17.2733E-03     18.1755E-03    -9.39024E-03    -9.80273E-03
            6315               1     26.6898E-03     26.8565E-03    -10.7732E-03    -11.0505E-03
            6316               1     45.0200E-03     44.7276E-03    -12.0082E-03    -11.0047E-03
            6317               1     69.4383E-03     70.8030E-03    -10.2546E-03    -8.81060E-03
            6318               1     57.1746E-03     57.5941E-03    -13.9623E-03    -14.9626E-03
            6319               1     40.6282E-03     40.3526E-03    -13.1059E-03    -14.6026E-03
            6320               1     30.5230E-03     30.6763E-03    -12.5681E-03    -13.5903E-03
            6321               1     22.1902E-03     23.6024E-03    -12.0888E-03    -13.2294E-03
            6322               1     21.1728E-03     22.7814E-03    -11.8940E-03    -12.6695E-03
            6323               1     30.1050E-03     31.4346E-03    -12.0241E-03    -12.1082E-03
            6324               1     41.0670E-03     40.6353E-03    -8.38493E-03    -7.64231E-03
            6325               1     64.5573E-03     62.7230E-03    -7.80162E-03    -7.03584E-03
            6326               1     52.8813E-03     53.3884E-03    -11.5436E-03    -10.7520E-03
            6327               1     42.8218E-03     43.9360E-03    -13.7995E-03    -14.6847E-03
            6328               1     31.4199E-03     32.4061E-03    -13.6250E-03    -14.8171E-03
            6329               1     24.9671E-03     26.2433E-03    -13.5041E-03    -14.4752E-03
            6330               1     23.3345E-03     25.0099E-03    -13.0170E-03    -13.8011E-03
            6331               1     27.2821E-03     27.7617E-03    -10.7615E-03    -10.7588E-03
            6332               1     35.8311E-03     36.2996E-03    -7.47464E-03    -7.32993E-03
            6333               1     60.3973E-03     59.9433E-03    -7.90152E-03    -7.30176E-03
            6334               1     50.5308E-03     49.9014E-03    -11.0245E-03    -10.7494E-03
            6335               1     40.7628E-03     41.0427E-03    -13.0781E-03    -13.0150E-03
            6336               1     32.8880E-03     33.7834E-03    -14.2923E-03    -14.9728E-03
            6337               1     25.6930E-03     26.7102E-03    -14.0240E-03    -14.8002E-03
            6338               1     22.7175E-03     23.6636E-03    -12.8553E-03    -13.3682E-03
            6339               1     25.4538E-03     26.3429E-03    -10.8086E-03    -11.1487E-03
            6340               1     33.2946E-03     32.9745E-03    -7.98594E-03    -7.88182E-03
            6341               1     56.9891E-03     55.6960E-03    -7.17699E-03    -6.90887E-03
            6342               1     47.7723E-03     47.6163E-03    -10.8487E-03    -10.5156E-03
            6343               1     39.7571E-03     39.6259E-03    -13.1173E-03    -13.0515E-03
            6344               1     32.1073E-03     32.2254E-03    -14.0683E-03    -14.1753E-03
            6345               1     26.2033E-03     26.6458E-03    -14.1644E-03    -14.4980E-03
            6346               1     22.5445E-03     23.4244E-03    -12.9072E-03    -13.3776E-03
            6347               1     24.1081E-03     24.6066E-03    -10.9066E-03    -11.2529E-03
            6348               1     29.9823E-03     30.1679E-03    -7.68402E-03    -7.89910E-03
            6349               1     52.7713E-03     52.3091E-03    -7.29879E-03    -7.18345E-03
            6350               1     45.2385E-03     44.7827E-03    -10.5864E-03    -10.4282E-03
            6351               1     38.1588E-03     38.0647E-03    -12.9172E-03    -12.6108E-03
            6352               1     31.7951E-03     31.5024E-03    -14.1317E-03    -13.9203E-03
            6353               1     26.0891E-03     25.8802E-03    -13.9716E-03    -13.9271E-03
            6354               1     22.6981E-03     22.9788E-03    -13.0558E-03    -13.2269E-03
            6355               1     22.2839E-03     23.2270E-03    -10.7730E-03    -11.1968E-03
            6356               1     27.2030E-03     27.1178E-03    -7.82196E-03    -8.24988E-03
            6357               1     49.2086E-03     48.4749E-03    -6.86218E-03    -7.10943E-03
            6358               1     42.4499E-03     42.6405E-03    -10.5572E-03    -10.4610E-03
            6359               1     36.6963E-03     36.6006E-03    -12.8012E-03    -12.4575E-03
            6360               1     30.9239E-03     30.3470E-03    -13.7651E-03    -13.1320E-03
            6361               1     26.1984E-03     25.1727E-03    -14.0830E-03    -13.4986E-03
            6362               1     22.4985E-03     22.4423E-03    -12.9715E-03    -12.9510E-03
            6363               1     21.6769E-03     22.1759E-03    -11.0285E-03    -11.3686E-03
            6364               1     24.0229E-03     24.8952E-03    -7.77043E-03    -8.34137E-03
            6365               1     44.4637E-03     44.7999E-03    -6.83616E-03    -7.28684E-03
            6366               1     40.1174E-03     40.6493E-03    -10.3970E-03    -10.5950E-03
            6367               1     35.0778E-03     35.2076E-03    -12.3219E-03    -11.6832E-03
            6368               1     29.6254E-03     28.8683E-03    -13.3831E-03    -12.5385E-03
            6369               1     25.5808E-03     24.0572E-03    -13.7873E-03    -12.7348E-03
            6370               1     23.5479E-03     22.0821E-03    -13.5674E-03    -12.7176E-03
            6371               1     20.8782E-03     22.0797E-03    -11.2939E-03    -11.7401E-03
            6372               1     21.5982E-03     21.8284E-03    -7.66299E-03    -8.74885E-03
            6373               1     40.7055E-03     40.8620E-03    -5.93571E-03    -7.02852E-03
            6374               1     37.0947E-03     38.1249E-03    -9.40609E-03    -9.40929E-03
            6375               1     32.4306E-03     32.3180E-03    -11.5742E-03    -10.9158E-03
            6376               1     28.4997E-03     27.6864E-03    -13.1698E-03    -12.1199E-03
            6377               1     25.0500E-03     23.9445E-03    -13.6268E-03    -12.6890E-03
            6378               1     23.5900E-03     21.5136E-03    -13.5922E-03    -12.3529E-03
            6379               1     23.0246E-03     21.2169E-03    -12.7069E-03    -11.6580E-03
            6380               1     17.6703E-03     20.9369E-03    -7.97703E-03    -9.35811E-03
            6381               1     32.2045E-03     32.5952E-03    -2.48728E-03    -3.57780E-03
            6382               1     32.4613E-03     31.5300E-03    -8.37616E-03    -8.19556E-03
            6383               1     30.5071E-03     29.9436E-03    -11.7311E-03    -11.3227E-03
            6384               1     27.6529E-03     27.6562E-03    -13.3014E-03    -12.9428E-03
            6385               1     25.7989E-03     25.5780E-03    -14.2675E-03    -13.6716E-03
            6386               1     23.7813E-03     23.3079E-03    -13.7156E-03    -13.2990E-03
            6387               1     23.5741E-03     21.0067E-03    -12.9455E-03    -12.0161E-03
            6388               1     17.8855E-03     14.3601E-03    -8.92076E-03    -8.15218E-03
            6389               1     48.4657E-03     42.9745E-03    -11.6982E-03    -12.1834E-03
            6390               1     33.2691E-03     30.3760E-03    -11.0999E-03    -12.0254E-03
            6391               1     24.9671E-03     22.9042E-03    -9.61474E-03    -9.84216E-03
            6392               1     19.4254E-03     18.7392E-03    -9.39667E-03    -9.77694E-03
            6393               1     16.2825E-03     16.1519E-03    -9.14068E-03    -9.25791E-03
            6394               1     15.8358E-03     16.5284E-03    -8.87713E-03    -9.04787E-03
            6395               1     20.2516E-03     20.9528E-03    -9.72276E-03    -9.63907E-03
            6396               1     30.0199E-03     31.3153E-03    -9.82431E-03    -8.87878E-03
            6397               1     40.3416E-03     41.3520E-03    -7.94814E-03    -7.18212E-03
            6398               1     34.5651E-03     34.8067E-03    -11.0320E-03    -11.7661E-03
            6399               1     26.1018E-03     26.0893E-03    -10.9029E-03    -11.8099E-03
            6400               1     21.9155E-03     21.9019E-03    -10.8595E-03    -11.3240E-03
            6401               1     18.7717E-03     19.5013E-03    -10.6628E-03    -11.2078E-03
            6402               1     18.6086E-03     19.2008E-03    -10.5796E-03    -10.7682E-03
            6403               1     22.6489E-03     23.1336E-03    -10.5397E-03    -10.2786E-03
            6404               1     26.9427E-03     26.1779E-03    -7.16504E-03    -6.98137E-03
            6405               1     36.4456E-03     35.0795E-03    -6.44365E-03    -6.00394E-03
            6406               1     31.1705E-03     31.2635E-03    -9.63753E-03    -9.12961E-03
            6407               1     27.3283E-03     27.9312E-03    -11.4769E-03    -11.9668E-03
            6408               1     22.6822E-03     23.2821E-03    -11.6197E-03    -12.2375E-03
            6409               1     20.5664E-03     21.1275E-03    -11.6364E-03    -12.0490E-03
            6410               1     20.0626E-03     20.7410E-03    -11.3217E-03    -11.6103E-03
            6411               1     20.3582E-03     20.5187E-03    -9.40249E-03    -9.48410E-03
            6412               1     22.3330E-03     23.1522E-03    -6.53379E-03    -6.70673E-03
            6413               1     32.8766E-03     32.6489E-03    -6.50649E-03    -6.17990E-03
            6414               1     29.2260E-03     28.7010E-03    -9.27301E-03    -9.06149E-03
            6415               1     25.9281E-03     25.8636E-03    -11.1314E-03    -10.9926E-03
            6416               1     23.5639E-03     24.0809E-03    -12.0841E-03    -12.4429E-03
            6417               1     21.1897E-03     21.7393E-03    -12.0516E-03    -12.4188E-03
            6418               1     19.4544E-03     20.0692E-03    -11.0808E-03    -11.4298E-03
            6419               1     19.0383E-03     19.6580E-03    -9.38653E-03    -9.67432E-03
            6420               1     20.7079E-03     20.4849E-03    -7.00513E-03    -6.99443E-03
            6421               1     29.9488E-03     29.1483E-03    -6.10869E-03    -5.86870E-03
            6422               1     27.1722E-03     26.8791E-03    -9.20458E-03    -8.93364E-03
            6423               1     25.1067E-03     24.9320E-03    -11.0947E-03    -11.0136E-03
            6424               1     23.2448E-03     23.2389E-03    -12.0756E-03    -12.0879E-03
            6425               1     21.3117E-03     21.7859E-03    -12.0583E-03    -12.3512E-03
            6426               1     19.3723E-03     19.9755E-03    -11.1277E-03    -11.4662E-03
            6427               1     18.2497E-03     18.6666E-03    -9.47281E-03    -9.75054E-03
            6428               1     18.1524E-03     18.4728E-03    -6.76596E-03    -7.03464E-03
            6429               1     26.7325E-03     26.3768E-03    -6.16357E-03    -6.05742E-03
            6430               1     25.1005E-03     24.6845E-03    -9.01883E-03    -8.79837E-03
            6431               1     24.2723E-03     23.8982E-03    -11.1227E-03    -10.8835E-03
            6432               1     22.9297E-03     22.9059E-03    -12.0048E-03    -12.0068E-03
            6433               1     21.3787E-03     21.4540E-03    -12.0526E-03    -12.1164E-03
            6434               1     19.3466E-03     19.8885E-03    -11.1591E-03    -11.4736E-03
            6435               1     17.1580E-03     17.7397E-03    -9.30817E-03    -9.65739E-03
            6436               1     16.4247E-03     16.5379E-03    -7.02433E-03    -7.14504E-03
            6437               1     23.7158E-03     23.3763E-03    -6.08289E-03    -5.94092E-03
            6438               1     23.4653E-03     23.0990E-03    -9.12005E-03    -8.93583E-03
            6439               1     23.1360E-03     22.8431E-03    -10.9728E-03    -10.7512E-03
            6440               1     22.8007E-03     22.4061E-03    -12.0377E-03    -11.8098E-03
            6441               1     21.3592E-03     21.3479E-03    -11.9998E-03    -12.0167E-03
            6442               1     19.2383E-03     19.4900E-03    -11.0986E-03    -11.2490E-03
            6443               1     16.8005E-03     17.3749E-03    -9.45670E-03    -9.76294E-03
            6444               1     14.4747E-03     14.8139E-03    -6.76514E-03    -7.16097E-03
            6445               1     20.8807E-03     20.5683E-03    -6.05453E-03    -6.11840E-03
            6446               1     21.5130E-03     21.4859E-03    -9.01359E-03    -8.88286E-03
            6447               1     22.5093E-03     22.1192E-03    -11.0029E-03    -10.7113E-03
            6448               1     22.1693E-03     21.7940E-03    -11.8377E-03    -11.5501E-03
            6449               1     21.4166E-03     20.9016E-03    -12.0035E-03    -11.7026E-03
            6450               1     19.4128E-03     19.4879E-03    -11.1581E-03    -11.2247E-03
            6451               1     16.3968E-03     16.8605E-03    -9.39106E-03    -9.67620E-03
            6452               1     13.1979E-03     13.8023E-03    -6.93289E-03    -7.25067E-03
            6453               1     17.4683E-03     17.9285E-03    -5.98111E-03    -6.06684E-03
            6454               1     20.3268E-03     20.2365E-03    -9.12245E-03    -9.05618E-03
            6455               1     21.4357E-03     21.3823E-03    -10.7679E-03    -10.5508E-03
            6456               1     21.4030E-03     21.0999E-03    -11.4691E-03    -11.1380E-03
            6457               1     20.8854E-03     20.1149E-03    -11.7730E-03    -11.2352E-03
            6458               1     20.0540E-03     19.2701E-03    -11.5013E-03    -11.0328E-03
            6459               1     16.7779E-03     17.2256E-03    -9.66800E-03    -9.94275E-03
            6460               1     11.8701E-03     12.8272E-03    -6.57170E-03    -7.30788E-03
            6461               1     15.1154E-03     15.0124E-03    -5.96594E-03    -6.33384E-03
            6462               1     18.6627E-03     19.5155E-03    -8.89687E-03    -9.16772E-03
            6463               1     20.0042E-03     20.3907E-03    -10.1653E-03    -10.0802E-03
            6464               1     20.3822E-03     20.0026E-03    -11.1121E-03    -10.6232E-03
            6465               1     20.0672E-03     19.6922E-03    -11.3120E-03    -10.9051E-03
            6466               1     19.7899E-03     18.6931E-03    -11.3849E-03    -10.6414E-03
            6467               1     18.7987E-03     17.5983E-03    -10.8237E-03    -10.0432E-03
            6468               1     12.4759E-03     13.5297E-03    -7.02454E-03    -7.79952E-03
            6469               1     9.95285E-03     12.4038E-03    -5.05794E-03    -5.89615E-03
            6470               1     16.7242E-03     17.6930E-03    -8.32664E-03    -8.54544E-03
            6471               1     18.6145E-03     18.8549E-03    -9.82266E-03    -9.65790E-03
            6472               1     19.4110E-03     19.7771E-03    -10.6843E-03    -10.5960E-03
            6473               1     19.7697E-03     19.6906E-03    -11.2374E-03    -10.8999E-03
            6474               1     18.8039E-03     18.8933E-03    -10.8119E-03    -10.6073E-03
            6475               1     18.7021E-03     18.0632E-03    -10.7934E-03    -10.1522E-03
            6476               1     15.0089E-03     15.9322E-03    -8.48001E-03    -7.62675E-03
            6477               1     18.0877E-03     15.5930E-03    -6.93577E-03    -7.51451E-03
            6478               1     16.0741E-03     15.4198E-03    -8.47886E-03    -8.78642E-03
            6479               1     15.6406E-03     14.6505E-03    -8.57992E-03    -8.42738E-03
            6480               1     15.4126E-03     15.1621E-03    -8.65437E-03    -8.75243E-03
            6481               1     15.2993E-03     14.9351E-03    -8.68285E-03    -8.60559E-03
            6482               1     14.3371E-03     14.7609E-03    -8.23834E-03    -8.42535E-03
            6483               1     14.3013E-03     14.7102E-03    -8.25545E-03    -8.20618E-03
            6484               1     13.7284E-03     15.2204E-03    -7.04874E-03    -6.30794E-03
            6485               1     12.8479E-03     12.7774E-03    -6.33684E-03    -5.54272E-03
            6486               1     16.4893E-03     16.0349E-03    -8.92986E-03    -8.87942E-03
            6487               1     16.0358E-03     16.1260E-03    -9.04352E-03    -9.24379E-03
            6488               1     15.7817E-03     15.5493E-03    -8.97160E-03    -8.92781E-03
            6489               1     15.4468E-03     15.5295E-03    -8.89396E-03    -8.96587E-03
            6490               1     15.8449E-03     15.6753E-03    -9.13551E-03    -9.04167E-03
            6491               1     15.0722E-03     15.5613E-03    -8.66645E-03    -8.80044E-03
            6492               1     10.8774E-03     11.4885E-03    -5.37619E-03    -6.21219E-03
            6493               1     11.2342E-03     9.62832E-03    -5.98249E-03    -5.31962E-03
            6494               1     15.2387E-03     15.1764E-03    -8.55441E-03    -8.31858E-03
            6495               1     15.9955E-03     16.5845E-03    -9.08196E-03    -9.21952E-03
            6496               1     15.7493E-03     15.7803E-03    -9.06594E-03    -9.01577E-03
            6497               1     15.6570E-03     15.8444E-03    -9.03569E-03    -9.10320E-03
            6498               1     16.1503E-03     15.8477E-03    -9.27452E-03    -9.14432E-03
            6499               1     15.0980E-03     15.0547E-03    -8.64775E-03    -8.64913E-03
            6500               1     9.21335E-03     10.9383E-03    -5.31642E-03    -6.23347E-03
            6501               1     10.0411E-03     10.8240E-03    -5.54979E-03    -6.18313E-03
            6502               1     13.9518E-03     14.9316E-03    -7.98103E-03    -8.12556E-03
            6503               1     15.1301E-03     15.3973E-03    -8.71063E-03    -8.48778E-03
            6504               1     15.7771E-03     16.3975E-03    -9.10819E-03    -9.19890E-03
            6505               1     16.0464E-03     16.0525E-03    -9.23594E-03    -9.15762E-03
            6506               1     15.2376E-03     15.4330E-03    -8.71748E-03    -8.85885E-03
            6507               1     14.9074E-03     14.4895E-03    -8.47550E-03    -8.31477E-03
            6508               1     11.6281E-03     11.8185E-03    -6.68866E-03    -5.96531E-03