Element Label             Int         S.Mises         S.Mises           S.S12           S.S12
                              Pt          @Loc 1          @Loc 2          @Loc 1          @Loc 2
-------------------------------------------------------------------------------------------------
               1,               1,     7.73373E-15,     6.84854E-15,     2.93823E-15,     2.40107E-15
               2,               1,     7.57620E-15,     8.59958E-15,     3.31247E-15,    3.55234E-15
               3,               1,     6.06272E-15,     5.62818E-15,    -1.39569E-15,    -892.584E-18